P    Ru   C    O 
   1.00000000000000     
  13.2544002533000000   0.0000000000000000   0.0000000000000000
   0.0000000000000000  13.1288995743000001   0.0000000000000000
   0.0000000000000000   0.0000000000000000  20.0000000000000000
P    Ru   C    O 
48  1  1  3  
Selective dynamics
Direct
  0.0699488519749591  0.2069956505538830  0.0449767974627115 T T T
  0.1954742644510021  0.3192825776528465  0.0434350574654873 T T T
  0.1923475645010296  0.0377587003453808  0.1493688691576543 T T T
  0.0680271618296887  0.1517747282122109  0.1509767081196923 T T T
  0.3125385029189448  0.1983822463495911  0.0403154452859530 T T T
  0.4425230415497001  0.3032910106387876  0.0272716611222823 T T T
  0.4415464524383016  0.0376540961875928  0.1490705518824154 T T T
  0.3171951273789758  0.1509302877703481  0.1482032375806511 T T T
  0.5707804820613382  0.1959082411160273  0.0394679217476434 T T T
  0.6907832766700308  0.3147820309591500  0.0397975969813520 T T T
  0.6913811805169495  0.0379028237308409  0.1492731271387261 T T T
  0.5661447592171867  0.1509037060202543  0.1477779215844644 T T T
  0.8170812929084522  0.2035930730395447  0.0433507733898123 T T T
  0.9424980498075514  0.3164795619492423  0.0404176438122795 T T T
  0.9423146338229156  0.0387496793502759  0.1504761767812451 T T T
  0.8165053262464409  0.1514420773509357  0.1498434570767566 T T T
  0.0668863836811710  0.5375822060287045  0.0295831234613239 T T T
  0.1914016834264535  0.6525627416771175  0.0263342935555244 T T T
  0.1961096953714751  0.3875427866597271  0.1480464150000750 T T T
  0.0671719569458398  0.4945414041405086  0.1381372333743107 T T T
  0.3185164588713920  0.5414601609310724  0.0229857094296458 T T T
  0.4421823807739429  0.6532241260544661  0.0218409140641666 T T T
  0.4416676144274878  0.3648540214546531  0.1318054814011246 T T T
  0.3311654251443791  0.4904876105048010  0.1319094449082060 T T T
  0.5652602971506309  0.5397547788855606  0.0261811659480503 T T T
  0.6916774594074204  0.6514599423013517  0.0294002262909111 T T T
  0.6892785112676811  0.3801193315264895  0.1441678116661316 T T T
  0.5573820836784877  0.4862144042496210  0.1338124637804053 T T T
  0.8160113023028925  0.5368422074497075  0.0312425850718519 T T T
  0.9409334205902667  0.6505765764553856  0.0311014197975500 T T T
  0.9426391402326104  0.3801658988754110  0.1439512699411434 T T T
  0.8158275625302331  0.4910669440319981  0.1391916027792491 T T T
  0.0663792767908769  0.8715494983798875  0.0412600485432701 T T T
  0.1906758400287294  0.9844768677759378  0.0427788070384102 T T T
  0.1928661853880895  0.6922868629765480  0.1353019446640350 T T T
  0.0680230411081760  0.8054916394342951  0.1447956598736834 T T T
  0.3162657486106578  0.8728944290163203  0.0399873321790797 T T T
  0.4414636848947777  0.9849074805457796  0.0426221952970626 T T T
  0.4382187265113539  0.6975679658996670  0.1333215106889533 T T T
  0.3139819920354920  0.8087801436589028  0.1444378534177085 T T T
  0.5657513955396352  0.8720525728454497  0.0414394997976387 T T T
  0.6909717514938520  0.9841411516689264  0.0430050573270720 T T T
  0.6912072690521236  0.6956825161042730  0.1375220012269183 T T T
  0.5655970477271313  0.8068773301400323  0.1461301962218365 T T T
  0.8173496062161617  0.8730511033108258  0.0404035600280651 T T T
  0.9428477300842856  0.9854834942201340  0.0440797853652064 T T T
  0.9407455956044825  0.6959881995365728  0.1390622056987411 T T T
  0.8159101850062496  0.8088267080234183  0.1439730027030518 T T T
  0.4350318335317500  0.5680512726403394  0.2062320845640836 T T T
  0.3303290786814898  0.6130945600026109  0.2770050365779121 T T T
  0.3796617381704619  0.5773214258372360  0.3323460913648227 T T T
  0.4711020671181605  0.5304422429864036  0.2979327439118216 T T T
  0.2498688993102643  0.6570368525429425  0.2828992554518019 T T T
