P    Ru   C    O 
   1.00000000000000     
  13.2544002533000000   0.0000000000000000   0.0000000000000000
   0.0000000000000000  13.1288995743000001   0.0000000000000000
   0.0000000000000000   0.0000000000000000  20.0000000000000000
P    Ru   C    O 
48  1  1  3  
Selective dynamics
Direct
  0.0687228156325403  0.2078914297850430  0.0444920543727676 T T T
  0.1945069064922150  0.3198150714476430  0.0432504150114568 T T T
  0.1915754595705650  0.0385396155401807  0.1485486659737560 T T T
  0.0671307747782706  0.1523499494308280  0.1503776225346130 T T T
  0.3116991489262940  0.1988860445225240  0.0396457972058215 T T T
  0.4417375646648980  0.3040622584325160  0.0266433708069798 T T T
  0.4410158570265420  0.0384532909569231  0.1483555571401500 T T T
  0.3165449084719330  0.1515960886013160  0.1475266492205590 T T T
  0.5705952679711070  0.1970317676035980  0.0387682969256105 T T T
  0.6901353621971890  0.3163014448651750  0.0401187150828477 T T T
  0.6906961910073190  0.0387209136534281  0.1486228683651870 T T T
  0.5655521006228810  0.1517038231344190  0.1470555021976240 T T T
  0.8163223431725301  0.2051203259522940  0.0431967225232555 T T T
  0.9416924655278440  0.3179105089028550  0.0406887695300782 T T T
  0.9414348784925221  0.0394144550516486  0.1498984453981360 T T T
  0.8157468151363080  0.1521616066006220  0.1495506342977610 T T T
  0.0662992509024676  0.5382087120211170  0.0310764553729612 T T T
  0.1907441307199990  0.6529606354316190  0.0280655530759759 T T T
  0.1952993358834690  0.3863493765084270  0.1481994582196290 T T T
  0.0667020544626808  0.4941436392637260  0.1394217696057960 T T T
  0.3177189099309740  0.5418473488988270  0.0247760408270139 T T T
  0.4411482816275050  0.6539862707751710  0.0236297019766454 T T T
  0.4411564260253020  0.3637571787030820  0.1312209266195770 T T T
  0.3305282757747820  0.4892253036813660  0.1330539650390320 T T T
  0.5645623384611870  0.5407962830127740  0.0265097021258924 T T T
  0.6911210723802980  0.6521840903141300  0.0305854539261148 T T T
  0.6886813512179090  0.3803856765737450  0.1450621500495260 T T T
  0.5563827421226150  0.4853254283772590  0.1335319400100370 T T T
  0.8154163038117450  0.5376035975426990  0.0323133884771849 T T T
  0.9404553383221530  0.6511804897516740  0.0322351076454410 T T T
  0.9418662365524501  0.3801549973294910  0.1445657995409140 T T T
  0.8152723034427400  0.4915241288964940  0.1401637548261760 T T T
  0.0654767519704578  0.8723920154245310  0.0408628412291066 T T T
  0.1898937995441020  0.9852936969965780  0.0419759870065093 T T T
  0.1919161746212200  0.6951788108371910  0.1365622149611450 T T T
  0.0669157513772660  0.8080404777887150  0.1447585865566620 T T T
  0.3156215535401760  0.8737120725113310  0.0397044922083793 T T T
  0.4409635958776900  0.9857032553885150  0.0419554813602971 T T T
  0.4377622305851150  0.6996430472898890  0.1346086570138710 T T T
  0.3134202167006630  0.8113386883267780  0.1444594033529110 T T T
  0.5652467848111090  0.8726739278645110  0.0411884282292405 T T T
  0.6906268988016110  0.9846512755778600  0.0423645379723752 T T T
  0.6902759124395740  0.6969629554387500  0.1386216083702440 T T T
  0.5652861054705129  0.8089909049117450  0.1461704443180450 T T T
  0.8165925096556210  0.8732035826114880  0.0403252208320453 T T T
  0.9416552259558200  0.9860650435729210  0.0434862764032573 T T T
  0.9402400428596990  0.6977224482393750  0.1399815914627280 T T T
  0.8150566317578980  0.8101473790995610  0.1442758558617430 T T T
  0.4361135542380410  0.5686302302533970  0.2071433046395300 T T T
  0.3326850977584710  0.6144393771500060  0.2752462930554100 T T T
  0.4233036330505090  0.5759807215632050  0.3184165570818250 T T T
  0.4837455586926110  0.5154727381504360  0.2911955504624050 T T T
  0.2568363012125940  0.6540105669406130  0.2890128906977480 T T T
