P    Ru   C    O                        
   1.00000000000000     
    13.2544002533000000    0.0000000000000000    0.0000000000000000
     0.0000000000000000   13.1288995743000001    0.0000000000000000
     0.0000000000000000    0.0000000000000000   20.0000000000000000
   P    Ru   C    O 
    48     1     1     3
Selective dynamics
Direct
  0.0693699875987605  0.2081999480440372  0.0439437002365035   T   T   T
  0.1949404477673464  0.3204037079625617  0.0433003840364269   T   T   T
  0.1917193773930140  0.0376593708715889  0.1477340596173587   T   T   T
  0.0674050842241007  0.1516278225742595  0.1495002279736457   T   T   T
  0.3112811760581695  0.1988644779273057  0.0389620696800152   T   T   T
  0.4411584546030615  0.3040790596756512  0.0259309486383392   T   T   T
  0.4410668087988668  0.0376091891153234  0.1471384085443479   T   T   T
  0.3166396993287558  0.1506537048984371  0.1466404575732266   T   T   T
  0.5700026523641319  0.1969937750681260  0.0379813642174447   T   T   T
  0.6904467215949877  0.3155857500121930  0.0390267201807777   T   T   T
  0.6906986351685274  0.0380206347595020  0.1472739598404645   T   T   T
  0.5654462690805754  0.1509067445881261  0.1460861645794394   T   T   T
  0.8168566329794789  0.2045062170165257  0.0418647897622059   T   T   T
  0.9419599064633056  0.3177888714055570  0.0404738098341553   T   T   T
  0.9415766657192479  0.0389195107326992  0.1486550386587330   T   T   T
  0.8157619558589421  0.1514421482842384  0.1481180546501639   T   T   T
  0.0663188288495652  0.5381897595411490  0.0318301348891461   T   T   T
  0.1906383937785775  0.6530232983677156  0.0292211617486209   T   T   T
  0.1956415701423771  0.3867192921640041  0.1486712943485236   T   T   T
  0.0662451278464771  0.4934477036406268  0.1399910274054193   T   T   T
  0.3174696249536206  0.5420062419688829  0.0249293274010133   T   T   T
  0.4415802342890414  0.6532796272465157  0.0223070249909666   T   T   T
  0.4409593515393697  0.3640337689019709  0.1307480311383879   T   T   T
  0.3310100580146640  0.4905842799236004  0.1334138008713370   T   T   T
  0.5652174071710782  0.5399844354740542  0.0252849518173990   T   T   T
  0.6915448227595846  0.6517202148696124  0.0302798104855898   T   T   T
  0.6887097189956924  0.3787426777167985  0.1438238691385844   T   T   T
  0.5574827075018620  0.4844125365690440  0.1322886922646426   T   T   T
  0.8158737667063569  0.5373438580823430  0.0324683854265903   T   T   T
  0.9405684823301468  0.6510383666551283  0.0328301414728419   T   T   T
  0.9415678993743363  0.3790044123130548  0.1446821418009994   T   T   T
  0.8150555092169317  0.4903471813907919  0.1401667963475192   T   T   T
  0.0656137949985247  0.8715033104438001  0.0400483641250502   T   T   T
  0.1904013511728821  0.9839602162744800  0.0412428564157275   T   T   T
  0.1919821545902361  0.6952535509266079  0.1376907578594631   T   T   T
  0.0670349348017408  0.8087838624585446  0.1444801032562766   T   T   T
  0.3158704965782310  0.8719336400409313  0.0394998459559166   T   T   T
  0.4407067499475413  0.9844899327631376  0.0407630914032149   T   T   T
  0.4390506594780750  0.6981723787565264  0.1335879850986161   T   T   T
  0.3146138283366926  0.8102789799005047  0.1447231076375383   T   T   T
  0.5653578130836601  0.8719181831909912  0.0399710170067587   T   T   T
  0.6905172880990288  0.9842045064826579  0.0410474579041592   T   T   T
  0.6905399498311071  0.6972616175593804  0.1382512813055381   T   T   T
  0.5653631206504200  0.8089670409314451  0.1451917304570197   T   T   T
  0.8167765438311367  0.8728490992464574  0.0393717506094054   T   T   T
  0.9420305439449999  0.9856185221271022  0.0422908532342578   T   T   T
  0.9402019149777046  0.6984730250241797  0.1403351635104549   T   T   T
  0.8149717285311622  0.8108515058278842  0.1435791762830257   T   T   T
  0.4384103831856989  0.5666630749048842  0.2057797550981848   T   T   T
  0.3443995191105327  0.6181381174544121  0.2809448014511309   T   T   T
  0.3927792568910154  0.5717340415224875  0.3334355992812908   T   T   T
  0.4743268726632788  0.5160224812989018  0.2948932062516954   T   T   T
  0.2732921162468200  0.6746454516172682  0.2911140606909322   T   T   T
 
  0.00000000E+00  0.00000000E+00  0.00000000E+00
  0.00000000E+00  0.00000000E+00  0.00000000E+00
  0.00000000E+00  0.00000000E+00  0.00000000E+00
  0.00000000E+00  0.00000000E+00  0.00000000E+00
  0.00000000E+00  0.00000000E+00  0.00000000E+00
  0.00000000E+00  0.00000000E+00  0.00000000E+00
  0.00000000E+00  0.00000000E+00  0.00000000E+00
  0.00000000E+00  0.00000000E+00  0.00000000E+00
  0.00000000E+00  0.00000000E+00  0.00000000E+00
  0.00000000E+00  0.00000000E+00  0.00000000E+00
  0.00000000E+00  0.00000000E+00  0.00000000E+00
  0.00000000E+00  0.00000000E+00  0.00000000E+00
  0.00000000E+00  0.00000000E+00  0.00000000E+00
  0.00000000E+00  0.00000000E+00  0.00000000E+00
  0.00000000E+00  0.00000000E+00  0.00000000E+00
  0.00000000E+00  0.00000000E+00  0.00000000E+00
  0.00000000E+00  0.00000000E+00  0.00000000E+00
  0.00000000E+00  0.00000000E+00  0.00000000E+00
  0.00000000E+00  0.00000000E+00  0.00000000E+00
  0.00000000E+00  0.00000000E+00  0.00000000E+00
  0.00000000E+00  0.00000000E+00  0.00000000E+00
  0.00000000E+00  0.00000000E+00  0.00000000E+00
  0.00000000E+00  0.00000000E+00  0.00000000E+00
  0.00000000E+00  0.00000000E+00  0.00000000E+00
  0.00000000E+00  0.00000000E+00  0.00000000E+00
  0.00000000E+00  0.00000000E+00  0.00000000E+00
  0.00000000E+00  0.00000000E+00  0.00000000E+00
  0.00000000E+00  0.00000000E+00  0.00000000E+00
  0.00000000E+00  0.00000000E+00  0.00000000E+00
  0.00000000E+00  0.00000000E+00  0.00000000E+00
  0.00000000E+00  0.00000000E+00  0.00000000E+00
  0.00000000E+00  0.00000000E+00  0.00000000E+00
  0.00000000E+00  0.00000000E+00  0.00000000E+00
  0.00000000E+00  0.00000000E+00  0.00000000E+00
  0.00000000E+00  0.00000000E+00  0.00000000E+00
  0.00000000E+00  0.00000000E+00  0.00000000E+00
  0.00000000E+00  0.00000000E+00  0.00000000E+00
  0.00000000E+00  0.00000000E+00  0.00000000E+00
  0.00000000E+00  0.00000000E+00  0.00000000E+00
  0.00000000E+00  0.00000000E+00  0.00000000E+00
  0.00000000E+00  0.00000000E+00  0.00000000E+00
  0.00000000E+00  0.00000000E+00  0.00000000E+00
  0.00000000E+00  0.00000000E+00  0.00000000E+00
  0.00000000E+00  0.00000000E+00  0.00000000E+00
  0.00000000E+00  0.00000000E+00  0.00000000E+00
  0.00000000E+00  0.00000000E+00  0.00000000E+00
  0.00000000E+00  0.00000000E+00  0.00000000E+00
  0.00000000E+00  0.00000000E+00  0.00000000E+00
  0.00000000E+00  0.00000000E+00  0.00000000E+00
  0.00000000E+00  0.00000000E+00  0.00000000E+00
  0.00000000E+00  0.00000000E+00  0.00000000E+00
  0.00000000E+00  0.00000000E+00  0.00000000E+00
  0.00000000E+00  0.00000000E+00  0.00000000E+00
