CONTCARcif                              
   1.00000000000000     
    14.7784004211000006    0.0000000000000000    0.0000000000000000
    -7.3892002106000003   12.7984701919999999    0.0000000000000000
     0.0000000000000000    0.0000000000000000   15.0000000000000000
   C    N    Ni
    66     4     1
Direct
  0.0004363734229358  0.0004242798506908  0.1100315758933448
  0.0583699730147842  0.1126852772937568  0.1100297736816742
  0.1654492157299359  0.9985788134014300  0.1100303824757702
  0.2223646841835176  0.1095695454930237  0.1100301882847745
  0.3323835349983000  0.9985805666856180  0.1100290422683514
  0.3890824475367083  0.1090055818471924  0.1100338335018449
  0.5002084336587629  0.0001293764385650  0.1100301509880524
  0.5564989913561504  0.1106376028870102  0.1100318408312759
  0.6678101592858425  0.0012800430868083  0.1100285880664700
  0.7240804959572955  0.1120687495743269  0.1100276852259512
  0.8348358442997892  0.0013454643176374  0.1100298057086277
  0.8920528113011770  0.1131316937330240  0.1100306943217575
  0.0040746052393672  0.1693965849103023  0.1100295249994332
  0.0623692903437103  0.2812115573033367  0.1100228842890374
  0.1703266632276978  0.1682537028641065  0.1100244123988787
  0.2312625946927653  0.2810602815576644  0.1100121221943411
  0.3333925365730153  0.1638919160373433  0.1100257409280019
  0.3889028871018354  0.2735441120541751  0.1100127999605007
  0.4998020350213253  0.1643666445612482  0.1100336719536585
  0.5554925078638320  0.2749441350552573  0.1100281438163719
  0.6678053745858392  0.1665820347560825  0.1100287242273481
  0.7234342675094965  0.2775698178275903  0.1100323154292440
  0.8358396744787058  0.1679547989123336  0.1100266546157016
  0.8920655607537000  0.2789978531896864  0.1100311464108046
  0.0040886044480004  0.3347461997482100  0.1100297468522768
  0.0583760496237744  0.4457596910146435  0.1100304429920627
  0.1758990488523082  0.3379757161143360  0.1100098903663778
  0.2312597814961066  0.4502586783802442  0.1100128713112412
  0.4999802777624325  0.3290833173777585  0.1100169993621520
  0.6665201686100701  0.3316475112845296  0.1100288404340617
  0.7185576578349000  0.4423701931451660  0.1100223281213317
  0.8348512607250669  0.3335738995547501  0.1100302191327955
  0.8884463082760163  0.4444276486302101  0.1100308953005324
  0.0004515855473528  0.5001015237334272  0.1100320614859669
  0.0540470640144264  0.6109496010311304  0.1100300297537373
  0.1703264534167062  0.5021336468020507  0.1100248975375280
  0.2223598490548326  0.6128522492583670  0.1100305978401650
  0.3888993249896728  0.6154180764623334  0.1100145220468249
  0.6576190722901956  0.4942383401728350  0.1100169444067447
  0.7129823000350868  0.6065175991592966  0.1100155628647883
  0.8305137236757147  0.4987565949278974  0.1100276036801588
  0.8848082070515346  0.6097637674959415  0.1100299234104867
  0.9968308020707326  0.6655204718225889  0.1100287982074519
  0.0530424713576210  0.7765562657392664  0.1100265668621319
  0.1654529141673038  0.6669331395442555  0.1100305059238949
  0.2210709091394136  0.7779099976966037  0.1100282206740886
  0.3333863520339406  0.6695486172955185  0.1100265489691239
  0.3890766413078595  0.7801243325906100  0.1100342583452374
  0.4999839957580292  0.6709596985868131  0.1100184885397155
  0.5554979610353428  0.7806029472390819  0.1100288391338964
  0.6576222533375784  0.6634403243200282  0.1100177427339588
  0.7185574749129984  0.7762488452123719  0.1100226349825917
  0.8265122058624002  0.6632836159346667  0.1100241173562111
  0.8847940228001860  0.7750995374581819  0.1100297094660334
  0.9968180569664895  0.8313752257364939  0.1100289371356524
  0.0540312651834611  0.9431656641723976  0.1100297348921302
  0.1648018184056141  0.8324305045485829  0.1100247599127897
  0.2210756542329122  0.9432173439652303  0.1100283920972487
  0.3323764385441876  0.8338544689661518  0.1100288236077986
  0.3886727724137273  0.9443604389633649  0.1100267261698633
  0.4998067198623062  0.8354892795620046  0.1100344948930925
  0.5565052886707420  0.9459176440494730  0.1100321769921706
  0.6665250045668074  0.8349340488167272  0.1100288152617779
  0.7234298910042654  0.9459222916649210  0.1100318425167188
  0.8305081332793165  0.8318266611361480  0.1100274718744458
  0.8884306293036346  0.9440930595153390  0.1100304371881577
  0.3392224274961322  0.3312044476159031  0.1100122645600479
  0.5496595044790098  0.4364243314494587  0.1100170241944696
  0.3392172291790772  0.5080855117746808  0.1100140950761741
  0.5496648990248403  0.6133088813074963  0.1100182584697222
  0.4444387237634118  0.4722675913842593  0.1100134475928840
 
  0.00000000E+00  0.00000000E+00  0.00000000E+00
  0.00000000E+00  0.00000000E+00  0.00000000E+00
  0.00000000E+00  0.00000000E+00  0.00000000E+00
  0.00000000E+00  0.00000000E+00  0.00000000E+00
  0.00000000E+00  0.00000000E+00  0.00000000E+00
  0.00000000E+00  0.00000000E+00  0.00000000E+00
  0.00000000E+00  0.00000000E+00  0.00000000E+00
  0.00000000E+00  0.00000000E+00  0.00000000E+00
  0.00000000E+00  0.00000000E+00  0.00000000E+00
  0.00000000E+00  0.00000000E+00  0.00000000E+00
  0.00000000E+00  0.00000000E+00  0.00000000E+00
  0.00000000E+00  0.00000000E+00  0.00000000E+00
  0.00000000E+00  0.00000000E+00  0.00000000E+00
  0.00000000E+00  0.00000000E+00  0.00000000E+00
  0.00000000E+00  0.00000000E+00  0.00000000E+00
  0.00000000E+00  0.00000000E+00  0.00000000E+00
  0.00000000E+00  0.00000000E+00  0.00000000E+00
  0.00000000E+00  0.00000000E+00  0.00000000E+00
  0.00000000E+00  0.00000000E+00  0.00000000E+00
  0.00000000E+00  0.00000000E+00  0.00000000E+00
  0.00000000E+00  0.00000000E+00  0.00000000E+00
  0.00000000E+00  0.00000000E+00  0.00000000E+00
  0.00000000E+00  0.00000000E+00  0.00000000E+00
  0.00000000E+00  0.00000000E+00  0.00000000E+00
  0.00000000E+00  0.00000000E+00  0.00000000E+00
  0.00000000E+00  0.00000000E+00  0.00000000E+00
  0.00000000E+00  0.00000000E+00  0.00000000E+00
  0.00000000E+00  0.00000000E+00  0.00000000E+00
  0.00000000E+00  0.00000000E+00  0.00000000E+00
  0.00000000E+00  0.00000000E+00  0.00000000E+00
  0.00000000E+00  0.00000000E+00  0.00000000E+00
  0.00000000E+00  0.00000000E+00  0.00000000E+00
  0.00000000E+00  0.00000000E+00  0.00000000E+00
  0.00000000E+00  0.00000000E+00  0.00000000E+00
  0.00000000E+00  0.00000000E+00  0.00000000E+00
  0.00000000E+00  0.00000000E+00  0.00000000E+00
  0.00000000E+00  0.00000000E+00  0.00000000E+00
  0.00000000E+00  0.00000000E+00  0.00000000E+00
  0.00000000E+00  0.00000000E+00  0.00000000E+00
  0.00000000E+00  0.00000000E+00  0.00000000E+00
  0.00000000E+00  0.00000000E+00  0.00000000E+00
  0.00000000E+00  0.00000000E+00  0.00000000E+00
  0.00000000E+00  0.00000000E+00  0.00000000E+00
  0.00000000E+00  0.00000000E+00  0.00000000E+00
  0.00000000E+00  0.00000000E+00  0.00000000E+00
  0.00000000E+00  0.00000000E+00  0.00000000E+00
  0.00000000E+00  0.00000000E+00  0.00000000E+00
  0.00000000E+00  0.00000000E+00  0.00000000E+00
  0.00000000E+00  0.00000000E+00  0.00000000E+00
  0.00000000E+00  0.00000000E+00  0.00000000E+00
  0.00000000E+00  0.00000000E+00  0.00000000E+00
  0.00000000E+00  0.00000000E+00  0.00000000E+00
  0.00000000E+00  0.00000000E+00  0.00000000E+00
  0.00000000E+00  0.00000000E+00  0.00000000E+00
  0.00000000E+00  0.00000000E+00  0.00000000E+00
  0.00000000E+00  0.00000000E+00  0.00000000E+00
  0.00000000E+00  0.00000000E+00  0.00000000E+00
  0.00000000E+00  0.00000000E+00  0.00000000E+00
  0.00000000E+00  0.00000000E+00  0.00000000E+00
  0.00000000E+00  0.00000000E+00  0.00000000E+00
  0.00000000E+00  0.00000000E+00  0.00000000E+00
  0.00000000E+00  0.00000000E+00  0.00000000E+00
  0.00000000E+00  0.00000000E+00  0.00000000E+00
  0.00000000E+00  0.00000000E+00  0.00000000E+00
  0.00000000E+00  0.00000000E+00  0.00000000E+00
  0.00000000E+00  0.00000000E+00  0.00000000E+00
  0.00000000E+00  0.00000000E+00  0.00000000E+00
  0.00000000E+00  0.00000000E+00  0.00000000E+00
  0.00000000E+00  0.00000000E+00  0.00000000E+00
  0.00000000E+00  0.00000000E+00  0.00000000E+00
  0.00000000E+00  0.00000000E+00  0.00000000E+00
