CONTCARcif                              
   1.00000000000000     
    14.7784004211000006    0.0000000000000000    0.0000000000000000
    -7.3892002106000003   12.7984701919999999    0.0000000000000000
     0.0000000000000000    0.0000000000000000   15.0000000000000000
   C    N    Ni
    66     4     1
Direct
  0.0004363734229331  0.0004242798506896  0.1100315758933462
  0.0583699730147828  0.1126852772937601  0.1100297736816766
  0.1654492157299383 -0.0014211865985713  0.1100303824757717
  0.2223646841835179  0.1095695454930238  0.1100301882847758
  0.3323835349983005 -0.0014194333143815  0.1100290422683485
  0.3890824475367061  0.1090055818471920  0.1100338335018458
  0.5002084336587597  0.0001293764385658  0.1100301509880496
  0.5564989913561518  0.1106376028870125  0.1100318408312731
  0.6678101592858404  0.0012800430868118  0.1100285880664700
  0.7240804959572942  0.1120687495743246  0.1100276852259500
  0.8348358442997911  0.0013454643176341  0.1100298057086278
  0.8920528113011756  0.1131316937330260  0.1100306943217600
  0.0040746052393663  0.1693965849103052  0.1100295249994301
  0.0623692903437073  0.2812115573033375  0.1100228842890374
  0.1703266632277003  0.1682537028641076  0.1100244123988753
  0.2312625946927621  0.2810602815576663  0.1100121221943419
  0.3333925365730170  0.1638919160373461  0.1100257409280037
  0.3889028871018363  0.2735441120541724  0.1100127999604992
  0.4998020350213221  0.1643666445612494  0.1100336719536579
  0.5554925078638321  0.2749441350552563  0.1100281438163717
  0.6678053745858394  0.1665820347560819  0.1100287242273454
  0.7234342675094996  0.2775698178275876  0.1100323154292459
  0.8358396744787026  0.1679547989123324  0.1100266546157042
  0.8920655607537001  0.2789978531896843  0.1100311464108053
  0.0040886044480015  0.3347461997482110  0.1100297468522752
  0.0583760496237735  0.4457596910146409  0.1100304429920604
  0.1758990488523079  0.3379757161143325  0.1100098903663789
  0.2312597814961060  0.4502586783802461  0.1100128713112378
  0.4999802777624301  0.3290833173777554  0.1100169993621497
  0.6665201686100710  0.3316475112845269  0.1100288404340591
  0.7185576578348978  0.4423701931451633  0.1100223281213328
  0.8348512607250687  0.3335738995547524  0.1100302191327957
  0.8884463082760145  0.4444276486302070  0.1100308953005353
  0.0004515855473559  0.5001015237334293  0.1100320614859655
  0.0540470640144231  0.6109496010311319  0.1100300297537352
  0.1703264534167083  0.5021336468020512  0.1100248975375258
  0.2223598490548301  0.6128522492583640  0.1100305978401651
  0.3888993249896752  0.6154180764623303  0.1100145220468229
  0.6576190722901925  0.4942383401728369  0.1100169444067468
  0.7129823000350887  0.6065175991592946  0.1100155628647892
  0.8305137236757134  0.4987565949278959  0.1100276036801590
  0.8848082070515368  0.6097637674959435  0.1100299234104885
 -0.0031691979292641  0.6655204718225878  0.1100287982074507
  0.0530424713576233  0.7765562657392695  0.1100265668621326
  0.1654529141673071  0.6669331395442523  0.1100305059238945
  0.2210709091394162  0.7779099976966057  0.1100282206740875
  0.3333863520339436  0.6695486172955157  0.1100265489691269
  0.3890766413078607  0.7801243325906085  0.1100342583452343
  0.4999839957580319  0.6709596985868135  0.1100184885397135
  0.5554979610353405  0.7806029472390805  0.1100288391338978
  0.6576222533375784  0.6634403243200250  0.1100177427339604
  0.7185574749129999  0.7762488452123717  0.1100226349825925
  0.8265122058623972  0.6632836159346661  0.1100241173562135
  0.8847940228001873  0.7750995374581844  0.1100297094660315
 -0.0031819430335133  0.8313752257364969  0.1100289371356507
  0.0540312651834610  0.9431656641723961  0.1100297348921275
  0.1648018184056167  0.8324305045485819  0.1100247599127863
  0.2210756542329091  0.9432173439652325  0.1100283920972481
  0.3323764385441907  0.8338544689661510  0.1100288236077966
  0.3886727724137300  0.9443604389633664  0.1100267261698640
  0.4998067198623070  0.8354892795620076  0.1100344948930920
  0.5565052886707392  0.9459176440494734  0.1100321769921704
  0.6665250045668067  0.8349340488167249  0.1100288152617758
  0.7234298910042665  0.9459222916649205  0.1100318425167168
  0.8305081332793190  0.8318266611361493  0.1100274718744475
  0.8884306293036327  0.9440930595153425  0.1100304371881570
  0.3392224274961293  0.3312044476159020  0.1100122645600497
  0.5496595044790128  0.4364243314494572  0.1100170241944716
  0.3392172291790738  0.5080855117746825  0.1100140950761727
  0.5496648990248431  0.6133088813074952  0.1100182584697192
  0.4444387237634093  0.4722675913842601  0.1100134475928825
 
  0.00000000E+00  0.00000000E+00  0.00000000E+00
  0.00000000E+00  0.00000000E+00  0.00000000E+00
  0.00000000E+00  0.00000000E+00  0.00000000E+00
  0.00000000E+00  0.00000000E+00  0.00000000E+00
  0.00000000E+00  0.00000000E+00  0.00000000E+00
  0.00000000E+00  0.00000000E+00  0.00000000E+00
  0.00000000E+00  0.00000000E+00  0.00000000E+00
  0.00000000E+00  0.00000000E+00  0.00000000E+00
  0.00000000E+00  0.00000000E+00  0.00000000E+00
  0.00000000E+00  0.00000000E+00  0.00000000E+00
  0.00000000E+00  0.00000000E+00  0.00000000E+00
  0.00000000E+00  0.00000000E+00  0.00000000E+00
  0.00000000E+00  0.00000000E+00  0.00000000E+00
  0.00000000E+00  0.00000000E+00  0.00000000E+00
  0.00000000E+00  0.00000000E+00  0.00000000E+00
  0.00000000E+00  0.00000000E+00  0.00000000E+00
  0.00000000E+00  0.00000000E+00  0.00000000E+00
  0.00000000E+00  0.00000000E+00  0.00000000E+00
  0.00000000E+00  0.00000000E+00  0.00000000E+00
  0.00000000E+00  0.00000000E+00  0.00000000E+00
  0.00000000E+00  0.00000000E+00  0.00000000E+00
  0.00000000E+00  0.00000000E+00  0.00000000E+00
  0.00000000E+00  0.00000000E+00  0.00000000E+00
  0.00000000E+00  0.00000000E+00  0.00000000E+00
  0.00000000E+00  0.00000000E+00  0.00000000E+00
  0.00000000E+00  0.00000000E+00  0.00000000E+00
  0.00000000E+00  0.00000000E+00  0.00000000E+00
  0.00000000E+00  0.00000000E+00  0.00000000E+00
  0.00000000E+00  0.00000000E+00  0.00000000E+00
  0.00000000E+00  0.00000000E+00  0.00000000E+00
  0.00000000E+00  0.00000000E+00  0.00000000E+00
  0.00000000E+00  0.00000000E+00  0.00000000E+00
  0.00000000E+00  0.00000000E+00  0.00000000E+00
  0.00000000E+00  0.00000000E+00  0.00000000E+00
  0.00000000E+00  0.00000000E+00  0.00000000E+00
  0.00000000E+00  0.00000000E+00  0.00000000E+00
  0.00000000E+00  0.00000000E+00  0.00000000E+00
  0.00000000E+00  0.00000000E+00  0.00000000E+00
  0.00000000E+00  0.00000000E+00  0.00000000E+00
  0.00000000E+00  0.00000000E+00  0.00000000E+00
  0.00000000E+00  0.00000000E+00  0.00000000E+00
  0.00000000E+00  0.00000000E+00  0.00000000E+00
  0.00000000E+00  0.00000000E+00  0.00000000E+00
  0.00000000E+00  0.00000000E+00  0.00000000E+00
  0.00000000E+00  0.00000000E+00  0.00000000E+00
  0.00000000E+00  0.00000000E+00  0.00000000E+00
  0.00000000E+00  0.00000000E+00  0.00000000E+00
  0.00000000E+00  0.00000000E+00  0.00000000E+00
  0.00000000E+00  0.00000000E+00  0.00000000E+00
  0.00000000E+00  0.00000000E+00  0.00000000E+00
  0.00000000E+00  0.00000000E+00  0.00000000E+00
  0.00000000E+00  0.00000000E+00  0.00000000E+00
  0.00000000E+00  0.00000000E+00  0.00000000E+00
  0.00000000E+00  0.00000000E+00  0.00000000E+00
  0.00000000E+00  0.00000000E+00  0.00000000E+00
  0.00000000E+00  0.00000000E+00  0.00000000E+00
  0.00000000E+00  0.00000000E+00  0.00000000E+00
  0.00000000E+00  0.00000000E+00  0.00000000E+00
  0.00000000E+00  0.00000000E+00  0.00000000E+00
  0.00000000E+00  0.00000000E+00  0.00000000E+00
  0.00000000E+00  0.00000000E+00  0.00000000E+00
  0.00000000E+00  0.00000000E+00  0.00000000E+00
  0.00000000E+00  0.00000000E+00  0.00000000E+00
  0.00000000E+00  0.00000000E+00  0.00000000E+00
  0.00000000E+00  0.00000000E+00  0.00000000E+00
  0.00000000E+00  0.00000000E+00  0.00000000E+00
  0.00000000E+00  0.00000000E+00  0.00000000E+00
  0.00000000E+00  0.00000000E+00  0.00000000E+00
  0.00000000E+00  0.00000000E+00  0.00000000E+00
  0.00000000E+00  0.00000000E+00  0.00000000E+00
  0.00000000E+00  0.00000000E+00  0.00000000E+00
