P    Ru   C    O 
   1.00000000000000     
  13.2544002533000000   0.0000000000000000   0.0000000000000000
   0.0000000000000000  13.1288995743000001   0.0000000000000000
   0.0000000000000000   0.0000000000000000  20.0000000000000000
P    Ru   C    O 
48  1  1  3  
Selective dynamics
Direct
  0.0674967792901100  0.2087872090162080  0.0440073112828330 T T T
  0.1935395485334230  0.3203475652424290  0.0430657725574193 T T T
  0.1908033546400960  0.0393205307349760  0.1477284627898570 T T T
  0.0662343877268583  0.1529251706494390  0.1497785369495260 T T T
  0.3108597949336480  0.1993898426954530  0.0389761491256877 T T T
  0.4409520877800970  0.3048335062262380  0.0260150804916677 T T T
  0.4404852616147890  0.0392524857262444  0.1476405623978750 T T T
  0.3158946895648850  0.1522618894322890  0.1468500608604730 T T T
  0.5704100538808849  0.1981552940911580  0.0380686721035701 T T T
  0.6894874477243530  0.3178208587711990  0.0404398331843296 T T T
  0.6900112014976830  0.0395390035760244  0.1479726095916400 T T T
  0.5649594420285670  0.1525039402485860  0.1463330828107770 T T T
  0.8155633934365980  0.2066475788650450  0.0430426716566998 T T T
  0.9408868812481260  0.3193414558564670  0.0409598952478802 T T T
  0.9405551231621350  0.0400792307530153  0.1493207140150330 T T T
  0.8149883040261729  0.1528811358503010  0.1492578115187580 T T T
  0.0657121181237699  0.5388352180135390  0.0325697872845865 T T T
  0.1900865780135490  0.6533585291861210  0.0297968125964303 T T T
  0.1944889763954690  0.3851559663571320  0.1483525014391840 T T T
  0.0662321519795199  0.4937458743869460  0.1407063058372700 T T T
  0.3169213609905630  0.5422345368665800  0.0265663722243872 T T T
  0.4401141824810680  0.6547484154958880  0.0254184898891339 T T T
  0.4406452376231160  0.3626603359515100  0.1306363718380230 T T T
  0.3298911264051800  0.4879629968579240  0.1341984851698540 T T T
  0.5638643797717290  0.5418377871399970  0.0268382383037391 T T T
  0.6905646853531880  0.6529082383269080  0.0317706815613121 T T T
  0.6880841911681440  0.3806520216210030  0.1459564884329300 T T T
  0.5553834005667470  0.4844364525048870  0.1332514162396730 T T T
  0.8148213053205990  0.5383649876356880  0.0333841918825186 T T T
  0.9399772560540430  0.6517844030479620  0.0333687954933310 T T T
  0.9410933328722990  0.3801440957835780  0.1451803291406930 T T T
  0.8147170443552481  0.4919813137609880  0.1411359068731030 T T T
  0.0645742271500396  0.8732345324691760  0.0404656339149341 T T T
  0.1891117590594720  0.9861105262172100  0.0411731669746160 T T T
  0.1909661638543410  0.6980707586978310  0.1378224852582620 T T T
  0.0658084616463626  0.8105893161431300  0.1447215132396520 T T T
  0.3149773584696970  0.8745297160063360  0.0394216522376851 T T T
  0.4404635068606100  0.9864990302312580  0.0412887674235236 T T T
  0.4373057346588780  0.7017181286801130  0.1358958033387760 T T T
  0.3128584413658400  0.8138972329946550  0.1444809532881240 T T T
  0.5647421740825750  0.8732952828835679  0.0409373566608480 T T T
  0.6902820461093671  0.9851613994867990  0.0417240186176855 T T T
  0.6893445558270270  0.6982433947732150  0.1397212155135680 T T T
  0.5649751632139020  0.8111044796834580  0.1462106924142500 T T T
  0.8158354130950870  0.8733560619121480  0.0402468816360368 T T T
  0.9404627218273520  0.9866465929257090  0.0428927674412947 T T T
  0.9397344901149220  0.6994566969421711  0.1409009772267280 T T T
  0.8142030785095500  0.8114680501757050  0.1445787090204430 T T T
  0.4371952749443370  0.5692091878664560  0.2080545247149670 T T T
  0.3350411168354480  0.6157841942974041  0.2734875495329020 T T T
  0.4669455279305550  0.5746400172891700  0.3044870227988240 T T T
  0.4963890502670620  0.5005032333144750  0.2844583570129870 T T T
  0.2638037031149240  0.6509842813382960  0.2951265259436870 T T T
