CONTCAR                             
   1.00000000000000     
    14.7784004211000006    0.0000000000000000    0.0000000000000000
    -7.3892002106000003   12.7984701919999999    0.0000000000000000
     0.0000000000000000    0.0000000000000000   15.0000000000000000
   C    N    Ni   O 
    67     4     1     1
Selective dynamics
Direct
  0.0001692148558897  0.0002466302717284  0.1077411872448951  F  F  F
  0.0581049553125479  0.1125117508895597  0.1075790207899517  F  F  F
  0.1651315325455235  0.9983693720995075  0.1076306582807832  F  F  F
  0.2220686283189575  0.1093807657042730  0.1075367976745537  F  F  F
  0.3320640552708450  0.9983575488575784  0.1075160781455588  F  F  F
  0.3887772862150641  0.1087862190256348  0.1075955524831647  F  F  F
  0.4999477668223605 -0.0000373634094200  0.1075343199630987  F  F  F
  0.5562796409875082  0.1104699235992194  0.1076329976012838  F  F  F
  0.6675884766973751  0.0011392882861664  0.1076962227648654  F  F  F
  0.7238957339803029  0.1119365816934713  0.1076979088962915  F  F  F
  0.8346080565343549  0.0011816437881665  0.1077754193163069  F  F  F
  0.8918426490840590  0.1129870076538932  0.1076572802581070  F  F  F
  0.0038583330066380  0.1692615954216694  0.1075537480240282  F  F  F
  0.0621701656169727  0.2810770265374150  0.1074777446721190  F  F  F
  0.1700655190616488  0.1680828051395785  0.1074770467197202  F  F  F
  0.2310022484586360  0.2808909085719082  0.1073532725954436  F  F  F
  0.3330873449998030  0.1636512315612615  0.1075775168078093  F  F  F
  0.3885860413205494  0.2732967033965287  0.1075576187350261  F  F  F
  0.4995534775090384  0.1641765727164430  0.1076845967634241  F  F  F
  0.5552219809656377  0.2747345808028097  0.1078992892556796  F  F  F
  0.6675884827055434  0.1664276603584354  0.1077137068685002  F  F  F
  0.7232014255345601  0.2774104795341010  0.1078258494375620  F  F  F
  0.8356373629976381  0.1678081777965734  0.1076770080950629  F  F  F
  0.8918434986930177  0.2788349658976356  0.1076636051421782  F  F  F
  0.0038594668430810  0.3345789695145839  0.1075585309383660  F  F  F
  0.0581101535375922  0.4455758546846840  0.1075860128113868  F  F  F
  0.1756887696570270  0.3378363028659678  0.1074100245296558  F  F  F
  0.2310161957755772  0.4501052410006225  0.1072813562501695  F  F  F
  0.4996851307228803  0.3288466641098642  0.1079260213631357  F  F  F
  0.6662457212429972  0.3314739257324846  0.1079651788960326  F  F  F
  0.7182564277878986  0.4421808400244214  0.1081056162359219  F  F  F
  0.8346067295311925  0.3334045983177366  0.1077907443855518  F  F  F
  0.8881660027960221  0.4442491258876622  0.1078603565382027  F  F  F
  0.0001650985901376  0.4999007250116979  0.1077472868521815  F  F  F
  0.0537270883362058  0.6107466569652920  0.1077233413574240  F  F  F
  0.1700664118863632  0.5019665874147271  0.1074445473813763  F  F  F
  0.2220709960272492  0.6126703904706918  0.1074811530350628  F  F  F
  0.3885772303012339  0.6152611326265004  0.1074185788028890  F  F  F
  0.6573043359284738  0.4940462638667124  0.1082621405094533  F  F  F
  0.7126450897246462  0.6063118393151247  0.1083279177185620  F  F  F
  0.8302202237278311  0.4985753913663740  0.1080067291613649  F  F  F
  0.8844811736319963  0.6095753817221219  0.1080119523965758  F  F  F
  0.9965018252567852  0.6653213663781855  0.1078371753633572  F  F  F
  0.0527070001342990  0.7763428226176479  0.1077851917132650  F  F  F
  0.1651274471676821  0.6667443428449829  0.1075861399594151  F  F  F
  0.2207525459416417  0.7777246599393727  0.1075546604707883  F  F  F
  0.3330813227973003  0.6694146627697733  0.1074958187646353  F  F  F
  0.3887750126766240  0.7799702162639649  0.1075366140759883  F  F  F
  0.4996808088677967  0.6708179439210551  0.1078069081357973  F  F  F
  0.5552160292858582  0.7804627243228871  0.1078017907936002  F  F  F
  0.6573067134394223  0.6632377465269496  0.1082359664082418  F  F  F
  0.7182529778851012  0.7760526233716785  0.1080775025828868  F  F  F
  0.8261831466682089  0.6630800341966527  0.1081571218608091  F  F  F
  0.8844826930932771  0.7748859998748086  0.1080207511004224  F  F  F
  0.9965015333741882  0.8311617930747176  0.1078544784946329  F  F  F
  0.0537239445540276  0.9429604885172544  0.1077459454069230  F  F  F
  0.1644523039702653  0.8322173370595978  0.1076385950088085  F  F  F
  0.2207524765833840  0.9430102452488245  0.1075883196343755  F  F  F
  0.3320624095851155  0.8336858378282517  0.1074871469272328  F  F  F
  0.3883980022323057  0.9441908667706013  0.1074761162881426  F  F  F
  0.4995506681104886  0.8353558570277076  0.1076151374651413  F  F  F
  0.5562764076622706  0.9457889279339675  0.1076032466844553  F  F  F
  0.6662465100063357  0.8347505537147505  0.1079170765876441  F  F  F
  0.7231978184374933  0.9457666220478196  0.1078026979777687  F  F  F
  0.8302232480133461  0.8316269960302888  0.1080018887261956  F  F  F
  0.8881590947919246  0.9438914435670646  0.1078466327112336  F  F  F
  0.3980028952914025  0.4487864378056124  0.3125189053201826  T  T  T
  0.3388863712901624  0.3308863830681845  0.1071711749472718  F  F  F
  0.5493542941274329  0.4361753764701850  0.1081425195225273  F  F  F
  0.3388790160068242  0.5079856445852384  0.1069679708684938  F  F  F
  0.5493514656630671  0.6131606179912120  0.1081061148782792  F  F  F
  0.4440394633864101  0.4720176185006914  0.1080499668440803  F  F  F
  0.4743284581566084  0.4788978916387279  0.3516984777786720  T  T  T
 
  0.00000000E+00  0.00000000E+00  0.00000000E+00
  0.00000000E+00  0.00000000E+00  0.00000000E+00
  0.00000000E+00  0.00000000E+00  0.00000000E+00
  0.00000000E+00  0.00000000E+00  0.00000000E+00
  0.00000000E+00  0.00000000E+00  0.00000000E+00
  0.00000000E+00  0.00000000E+00  0.00000000E+00
  0.00000000E+00  0.00000000E+00  0.00000000E+00
  0.00000000E+00  0.00000000E+00  0.00000000E+00
  0.00000000E+00  0.00000000E+00  0.00000000E+00
  0.00000000E+00  0.00000000E+00  0.00000000E+00
  0.00000000E+00  0.00000000E+00  0.00000000E+00
  0.00000000E+00  0.00000000E+00  0.00000000E+00
  0.00000000E+00  0.00000000E+00  0.00000000E+00
  0.00000000E+00  0.00000000E+00  0.00000000E+00
  0.00000000E+00  0.00000000E+00  0.00000000E+00
  0.00000000E+00  0.00000000E+00  0.00000000E+00
  0.00000000E+00  0.00000000E+00  0.00000000E+00
  0.00000000E+00  0.00000000E+00  0.00000000E+00
  0.00000000E+00  0.00000000E+00  0.00000000E+00
  0.00000000E+00  0.00000000E+00  0.00000000E+00
  0.00000000E+00  0.00000000E+00  0.00000000E+00
  0.00000000E+00  0.00000000E+00  0.00000000E+00
  0.00000000E+00  0.00000000E+00  0.00000000E+00
  0.00000000E+00  0.00000000E+00  0.00000000E+00
  0.00000000E+00  0.00000000E+00  0.00000000E+00
  0.00000000E+00  0.00000000E+00  0.00000000E+00
  0.00000000E+00  0.00000000E+00  0.00000000E+00
  0.00000000E+00  0.00000000E+00  0.00000000E+00
  0.00000000E+00  0.00000000E+00  0.00000000E+00
  0.00000000E+00  0.00000000E+00  0.00000000E+00
  0.00000000E+00  0.00000000E+00  0.00000000E+00
  0.00000000E+00  0.00000000E+00  0.00000000E+00
  0.00000000E+00  0.00000000E+00  0.00000000E+00
  0.00000000E+00  0.00000000E+00  0.00000000E+00
  0.00000000E+00  0.00000000E+00  0.00000000E+00
  0.00000000E+00  0.00000000E+00  0.00000000E+00
  0.00000000E+00  0.00000000E+00  0.00000000E+00
  0.00000000E+00  0.00000000E+00  0.00000000E+00
  0.00000000E+00  0.00000000E+00  0.00000000E+00
  0.00000000E+00  0.00000000E+00  0.00000000E+00
  0.00000000E+00  0.00000000E+00  0.00000000E+00
  0.00000000E+00  0.00000000E+00  0.00000000E+00
  0.00000000E+00  0.00000000E+00  0.00000000E+00
  0.00000000E+00  0.00000000E+00  0.00000000E+00
  0.00000000E+00  0.00000000E+00  0.00000000E+00
  0.00000000E+00  0.00000000E+00  0.00000000E+00
  0.00000000E+00  0.00000000E+00  0.00000000E+00
  0.00000000E+00  0.00000000E+00  0.00000000E+00
  0.00000000E+00  0.00000000E+00  0.00000000E+00
  0.00000000E+00  0.00000000E+00  0.00000000E+00
  0.00000000E+00  0.00000000E+00  0.00000000E+00
  0.00000000E+00  0.00000000E+00  0.00000000E+00
  0.00000000E+00  0.00000000E+00  0.00000000E+00
  0.00000000E+00  0.00000000E+00  0.00000000E+00
  0.00000000E+00  0.00000000E+00  0.00000000E+00
  0.00000000E+00  0.00000000E+00  0.00000000E+00
  0.00000000E+00  0.00000000E+00  0.00000000E+00
  0.00000000E+00  0.00000000E+00  0.00000000E+00
  0.00000000E+00  0.00000000E+00  0.00000000E+00
  0.00000000E+00  0.00000000E+00  0.00000000E+00
  0.00000000E+00  0.00000000E+00  0.00000000E+00
  0.00000000E+00  0.00000000E+00  0.00000000E+00
  0.00000000E+00  0.00000000E+00  0.00000000E+00
  0.00000000E+00  0.00000000E+00  0.00000000E+00
  0.00000000E+00  0.00000000E+00  0.00000000E+00
  0.00000000E+00  0.00000000E+00  0.00000000E+00
  0.00000000E+00  0.00000000E+00  0.00000000E+00
  0.00000000E+00  0.00000000E+00  0.00000000E+00
  0.00000000E+00  0.00000000E+00  0.00000000E+00
  0.00000000E+00  0.00000000E+00  0.00000000E+00
  0.00000000E+00  0.00000000E+00  0.00000000E+00
  0.00000000E+00  0.00000000E+00  0.00000000E+00
  0.00000000E+00  0.00000000E+00  0.00000000E+00
