CONTCAR\(4)                             
   1.00000000000000     
    14.7784004211000006    0.0000000000000000    0.0000000000000000
    -7.3892002106000003   12.7984701919999999    0.0000000000000000
     0.0000000000000000    0.0000000000000000   15.0000000000000000
   C    N    Ni   H 
    66     4     1     1
Direct
  0.0002823770956111  0.0001835684854696  0.1100073113627880
  0.0580743209906948  0.1123338956099566  0.1098841721644788
  0.1652617030456304  0.9982811602802354  0.1099895456804190
  0.2221659892551588  0.1092024157492794  0.1091235755655683
  0.3322663406763480  0.9983661359203783  0.1102335956261894
  0.3889016403992647  0.1087468893961879  0.1089359405956686
  0.5002006617006178  0.0000656093662581  0.1104883760723419
  0.5565066078436069  0.1104855678993906  0.1102008594980281
  0.6678759009297707  0.0012827920617619  0.1105140295048516
  0.7241951949801811  0.1120559504701131  0.1107536255370226
  0.8349294558906742  0.0013786766749005  0.1102062021386738
  0.8920824027508216  0.1130563572815236  0.1103990358059901
  0.0041122890798021  0.1692656532022239  0.1101155958267287
  0.0623395186172714  0.2811325645247332  0.1100037458375742
  0.1698803731196145  0.1676805585517578  0.1095013555956390
  0.2304420046421330  0.2800861874804166  0.1091988965312507
  0.3331245276547175  0.1632797582512214  0.1080070471503192
  0.3885640040122718  0.2730891613942300  0.1065196141643344
  0.4998693125514290  0.1642338428882484  0.1089305140454729
  0.5556371132452756  0.2745394237757985  0.1080651857928724
  0.6678777947176088  0.1665143724755248  0.1104702092100810
  0.7235058001366652  0.2774043460284201  0.1100283456136236
  0.8359334536062469  0.1679229034845822  0.1106200558543086
  0.8920757876433137  0.2789383069190487  0.1104499162732206
  0.0041076313361808  0.3347664145850152  0.1101980729663664
  0.0580750983495626  0.4456610376125669  0.1100117898447707
  0.1758360906410986  0.3378795496966266  0.1095145671703078
  0.2304498325452372  0.4502780015570367  0.1094344428138095
  0.5001921617625241  0.3289108756188310  0.1066187210435371
  0.6665972652026250  0.3314216491976975  0.1092367188773845
  0.7188755421380375  0.4421810455294197  0.1096995536196489
  0.8349257724810599  0.3334671102592126  0.1102243201827548
  0.8884786901577877  0.4442854480160363  0.1100543677730364
  0.0002813326803166  0.5000166901086882  0.1100404283601311
  0.0538374470591409  0.6108374063067303  0.1101959215414520
  0.1698842012203380  0.5021243200246280  0.1097335102431813
  0.2221675383963956  0.6128885584530920  0.1093785796422880
  0.3885672548830610  0.6153863231085903  0.1070812190115304
  0.6583005213999145  0.4940200219796926  0.1094958619180822
  0.7129179449020594  0.6064196733876516  0.1098163761816139
  0.8306865504496451  0.4986442789020833  0.1100269209830430
  0.8846537000256148  0.6095387852252786  0.1102525543406416
  0.9966865326028105  0.6653622496876300  0.1104621338905915
  0.0528436578092273  0.7763783791900519  0.1106779466572557
  0.1652606525453836  0.6669034446487078  0.1100695015766511
  0.2209015184780469  0.7777987202232930  0.1105546725636804
  0.3331267883431885  0.6697603804980168  0.1084134724213730
  0.3889020721275306  0.7800753652370427  0.1092175614347202
  0.5001905451662129  0.6711909382152305  0.1071711669892206
  0.5556364289260403  0.7810124218469388  0.1084571332955334
  0.6582938619435900  0.6641946111125538  0.1097171961789000
  0.7188722679886358  0.7766130604301993  0.1099139564354998
  0.8264229689414421  0.6631736595212026  0.1101976084453231
  0.8846593384258128  0.7750390132902950  0.1103308294358071
  0.9966937323892849  0.8312449719298250  0.1105092761945705
  0.0538410281596328  0.9429214638908204  0.1102074134134313
  0.1645805749497712  0.8322500562976184  0.1108080255712729
  0.2208998900834899  0.9430244390160821  0.1105056067125818
  0.3322686015313306  0.8338279456144251  0.1103409259408404
  0.3885726650146082  0.9442517923944224  0.1105224999830537
  0.4998693957517858  0.8355552308827922  0.1092057666999667
  0.5565043111770032  0.9459462003338516  0.1103038805571460
  0.6665974714409296  0.8350980000228292  0.1094723990627025
  0.7235075505273444  0.9460234744610081  0.1100988759825183
  0.8306867659272174  0.8319608678198943  0.1101450302648489
  0.8884799890975668  0.9441115945554209  0.1100796307074772
  0.3383583913020707  0.3296348607983478  0.1072753703459795
  0.5503767226733253  0.4356623555929506  0.1075938990040667
  0.3383681128717828  0.5086382455062308  0.1077129996568173
  0.5503682488562764  0.6146193845734041  0.1080145704897811
  0.4443246072197178  0.4720812250878829  0.1203252729322305
  0.4428960895136129  0.4708622695805050  0.2195448321950856
 
  0.00000000E+00  0.00000000E+00  0.00000000E+00
  0.00000000E+00  0.00000000E+00  0.00000000E+00
  0.00000000E+00  0.00000000E+00  0.00000000E+00
  0.00000000E+00  0.00000000E+00  0.00000000E+00
  0.00000000E+00  0.00000000E+00  0.00000000E+00
  0.00000000E+00  0.00000000E+00  0.00000000E+00
  0.00000000E+00  0.00000000E+00  0.00000000E+00
  0.00000000E+00  0.00000000E+00  0.00000000E+00
  0.00000000E+00  0.00000000E+00  0.00000000E+00
  0.00000000E+00  0.00000000E+00  0.00000000E+00
  0.00000000E+00  0.00000000E+00  0.00000000E+00
  0.00000000E+00  0.00000000E+00  0.00000000E+00
  0.00000000E+00  0.00000000E+00  0.00000000E+00
  0.00000000E+00  0.00000000E+00  0.00000000E+00
  0.00000000E+00  0.00000000E+00  0.00000000E+00
  0.00000000E+00  0.00000000E+00  0.00000000E+00
  0.00000000E+00  0.00000000E+00  0.00000000E+00
  0.00000000E+00  0.00000000E+00  0.00000000E+00
  0.00000000E+00  0.00000000E+00  0.00000000E+00
  0.00000000E+00  0.00000000E+00  0.00000000E+00
  0.00000000E+00  0.00000000E+00  0.00000000E+00
  0.00000000E+00  0.00000000E+00  0.00000000E+00
  0.00000000E+00  0.00000000E+00  0.00000000E+00
  0.00000000E+00  0.00000000E+00  0.00000000E+00
  0.00000000E+00  0.00000000E+00  0.00000000E+00
  0.00000000E+00  0.00000000E+00  0.00000000E+00
  0.00000000E+00  0.00000000E+00  0.00000000E+00
  0.00000000E+00  0.00000000E+00  0.00000000E+00
  0.00000000E+00  0.00000000E+00  0.00000000E+00
  0.00000000E+00  0.00000000E+00  0.00000000E+00
  0.00000000E+00  0.00000000E+00  0.00000000E+00
  0.00000000E+00  0.00000000E+00  0.00000000E+00
  0.00000000E+00  0.00000000E+00  0.00000000E+00
  0.00000000E+00  0.00000000E+00  0.00000000E+00
  0.00000000E+00  0.00000000E+00  0.00000000E+00
  0.00000000E+00  0.00000000E+00  0.00000000E+00
  0.00000000E+00  0.00000000E+00  0.00000000E+00
  0.00000000E+00  0.00000000E+00  0.00000000E+00
  0.00000000E+00  0.00000000E+00  0.00000000E+00
  0.00000000E+00  0.00000000E+00  0.00000000E+00
  0.00000000E+00  0.00000000E+00  0.00000000E+00
  0.00000000E+00  0.00000000E+00  0.00000000E+00
  0.00000000E+00  0.00000000E+00  0.00000000E+00
  0.00000000E+00  0.00000000E+00  0.00000000E+00
  0.00000000E+00  0.00000000E+00  0.00000000E+00
  0.00000000E+00  0.00000000E+00  0.00000000E+00
  0.00000000E+00  0.00000000E+00  0.00000000E+00
  0.00000000E+00  0.00000000E+00  0.00000000E+00
  0.00000000E+00  0.00000000E+00  0.00000000E+00
  0.00000000E+00  0.00000000E+00  0.00000000E+00
  0.00000000E+00  0.00000000E+00  0.00000000E+00
  0.00000000E+00  0.00000000E+00  0.00000000E+00
  0.00000000E+00  0.00000000E+00  0.00000000E+00
  0.00000000E+00  0.00000000E+00  0.00000000E+00
  0.00000000E+00  0.00000000E+00  0.00000000E+00
  0.00000000E+00  0.00000000E+00  0.00000000E+00
  0.00000000E+00  0.00000000E+00  0.00000000E+00
  0.00000000E+00  0.00000000E+00  0.00000000E+00
  0.00000000E+00  0.00000000E+00  0.00000000E+00
  0.00000000E+00  0.00000000E+00  0.00000000E+00
  0.00000000E+00  0.00000000E+00  0.00000000E+00
  0.00000000E+00  0.00000000E+00  0.00000000E+00
  0.00000000E+00  0.00000000E+00  0.00000000E+00
  0.00000000E+00  0.00000000E+00  0.00000000E+00
  0.00000000E+00  0.00000000E+00  0.00000000E+00
  0.00000000E+00  0.00000000E+00  0.00000000E+00
  0.00000000E+00  0.00000000E+00  0.00000000E+00
  0.00000000E+00  0.00000000E+00  0.00000000E+00
  0.00000000E+00  0.00000000E+00  0.00000000E+00
  0.00000000E+00  0.00000000E+00  0.00000000E+00
  0.00000000E+00  0.00000000E+00  0.00000000E+00
  0.00000000E+00  0.00000000E+00  0.00000000E+00
