CONTCAR\(4)
1.0
       14.7784004211         0.0000000000         0.0000000000
       -7.3892002106        12.7984701920         0.0000000000
        0.0000000000         0.0000000000        15.0000000000
    C    N   Ni    H
   66    4    1    1
Direct
     0.000220000         0.000110000         0.110030003
     0.057670001         0.111950003         0.110030003
     0.165050000         0.997900009         0.110030003
     0.221839994         0.108570002         0.110040002
     0.332139999         0.997969985         0.110030003
     0.389030010         0.107910000         0.110040002
     0.500209987         0.000130000         0.110030003
     0.556739986         0.110270001         0.110030003
     0.668039978         0.001660000         0.110030003
     0.724359989         0.112209998         0.110030003
     0.835089982         0.001670000         0.110030003
     0.892180026         0.113289997         0.110030003
     0.003960000         0.169269994         0.110030003
     0.062199999         0.281129986         0.110019997
     0.169039994         0.166610003         0.110030003
     0.229289994         0.278739989         0.110009998
     0.332969993         0.162000000         0.110040002
     0.388419986         0.270999998         0.110009998
     0.499850005         0.163310006         0.110040002
     0.555920005         0.273479998         0.110030003
     0.668039978         0.166439995         0.110030003
     0.723839998         0.277289987         0.110030003
     0.835979998         0.168029994         0.110030003
     0.892189980         0.278970003         0.110030003
     0.003980000         0.334749997         0.110030003
     0.057680000         0.445809990         0.110030003
     0.175449997         0.337749988         0.110009998
     0.229289994         0.450599998         0.110009998
     0.500460029         0.327030003         0.110009998
     0.667039990         0.331169993         0.110030003
     0.719839990         0.442009985         0.110030003
     0.835120022         0.333510011         0.110030003
     0.888660014         0.444330007         0.110030003
     0.000240000         0.500190020         0.110030003
     0.053789999         0.611020029         0.110030003
     0.169039994         0.502479970         0.110030003
     0.221839994         0.613340020         0.110030003
     0.388410002         0.617479980         0.110009998
     0.659590006         0.493889987         0.110009998
     0.713440001         0.606739998         0.110009998
     0.831210017         0.498719990         0.110030003
     0.884930015         0.609759986         0.110030003
     0.996710002         0.665549994         0.110030003
     0.052900001         0.776489973         0.110030003
     0.165059999         0.667200029         0.110030003
     0.220850006         0.778060019         0.110030003
     0.332960010         0.671019971         0.110040002
     0.389030010         0.781180024         0.110040002
     0.500469983         0.673510015         0.110009998
     0.555920005         0.782490015         0.110040002
     0.659600019         0.665759981         0.110009998
     0.719850004         0.777890027         0.110030003
     0.826690018         0.663370013         0.110030003
     0.884909987         0.775219977         0.110030003
     0.996689975         0.831219971         0.110030003
     0.053769998         0.942839980         0.110030003
     0.164519995         0.832289994         0.110030003
     0.220850006         0.942849994         0.110030003
     0.332139999         0.834219992         0.110030003
     0.388669997         0.944350004         0.110030003
     0.499850005         0.836589992         0.110040002
     0.556750000         0.946519971         0.110030003
     0.667039990         0.835940003         0.110030003
     0.723829985         0.946590006         0.110030003
     0.831200004         0.832570016         0.110030003
     0.888639987         0.944400012         0.110030003
     0.335869998         0.325480014         0.109999999
     0.553009987         0.434049994         0.109999999
     0.335850000         0.510450006         0.109999999
     0.553030014         0.619040012         0.109999999
     0.444440007         0.472250015         0.109980002
     0.438549995         0.463589996         0.199680001
