NCORE = 8
NPAR = 8 
SYSTEM = INCAR-CI-NEB                 # Title of the SYSTEM
LWAVE = .FALSE.                       # Write WAVECAR or not
LCHARG = .FALSE.                      # Write CHGCAR or not
ISTART = 1                            # Read existing wavefunction, if there, other wise ISTART = 0
ISMEAR = 0                            # Gaussian smearing, Semiconductors or insulators use 0,   metals : 1)
SIGMA = 0.05                          # Smearing value in 0.03-0.05 eV semiconductors or insulators, metals:0.2) 
ICHARG = 2                            # Default: ICHARG	= 2
IBRION = 2                            # for Ionic relaxation (conjugate gradient algorithm)
POTIM = 0.2                           # 0.5	if IBRION = 1, 2, and 3 (ionic relaxation)
ISIF = 2                              # Moves ionic positions, if ISIF = 3 moves cell volume and cell shape 
NSW = 4000                            # NSW sets the maximum number of ionic steps.
NELM = 3000                           # NELM sets the maximum number of electronic self-consistency steps
NELMIN = 6                            # NELMIN specifies the minimum number of electronic self-consistency steps
ISYM = 0                              # ISYM= 1 | 2 | 3, switches on the use of symmetry. For ISYM=-1 | 0, the use of symmetry is switched off.
ISPIN = 2                             # ISPIN = 1 Non-Spin polarised DFT, 2-Spin polarised Calculations
IDIPOL = 3                            # IDIPOL switches on monopole/dipole and quadrupole corrections to the total energy
LMAXMIX = 4                           # LMAXMIX to 4 for d-elements and to 6 for f-elements
ADDGRID = .TRUE.
ALGO = VeryFast                       # ALGO=VeryFast selects IALGO=48 (RMM-DIIS)
NELMDL = -20
AMIX = 0.2
BMIX = 0.00001
AMIX_MAG = 0.8
BMIX_MAG = 0.00001
LREAL = Auto
PREC = Accurate
EDIFF = 1E-06                         # SCF energy convergence, in eV
EDIFFG = -0.02                        # Ionic convergence, eV/AA)
ENCUT = 400.0                         # you can find it from POTCAR : ENMAX  =  400.000  (Carbon atom in POTCAR)         
GGA = PE                              # Perdew-Burke-Ernzerhof (PBE)

#IVDW = 11                            # DFT-D3 method of Grimme with zero-damping function

####Magnetization####
#LORBIT = 11                           # To get magnetization density
#MAGMOM = 72*0.6                       # MAGMOM Specifies the initial magnetic moment for each atom


###CI-NEB###
NWRITE = 0
IMAGES = 5                           # Number of NEB images between the fixed endpoints  
SPRING = -5                          # Spring force (eV/A2) between images         
ICHAIN = 0                           # Indicates which method to run. NEB (ICHAIN=0) is the default         
LCLIMB = TRUE                        # Flag to turn on the climbing image algorithm
IOPT = 0                             # Default is to use the VASP optimizers