CONTCAR                                 
   1.00000000000000     
    14.7784004211000006    0.0000000000000000    0.0000000000000000
    -7.3892002106000003   12.7984701919999999    0.0000000000000000
     0.0000000000000000    0.0000000000000000   15.0000000000000000
   C    N    Ni   O    H 
    67     4     1     2     1
Selective dynamics
Direct
  0.0000294477507983 -0.0000332426899747  0.1097232816595746  F  F  F
  0.0577617585099125  0.1120785861456900  0.1092189345616924  F  F  F
  0.1650654948405338  0.9981157621641570  0.1089114908716386  F  F  F
  0.2219609794625834  0.1090808308365084  0.1078928158563504  F  F  F
  0.3320907958762497  0.9982888378046224  0.1084518758093276  F  F  F
  0.3886670180499022  0.1086835855436102  0.1072279066654659  F  F  F
  0.4999780941984975 -0.0000842030287814  0.1088315799262523  F  F  F
  0.5562558643842640  0.1103665034887373  0.1084349283425700  F  F  F
  0.6676363182869876  0.0010865629888445  0.1095195054033370  F  F  F
  0.7239661256922090  0.1118732533682721  0.1094122546805367  F  F  F
  0.8346899458023146  0.0011818198538181  0.1100590029938330  F  F  F
  0.8918069198564219  0.1128322748980321  0.1097330818119772  F  F  F
  0.0038092700037709  0.1690005839398205  0.1094318808164061  F  F  F
  0.0620625921246708  0.2809098820362906  0.1093872623439678  F  F  F
  0.1695223668418538  0.1673926730017184  0.1083888550348420  F  F  F
  0.2300188867035620  0.2796985992276020  0.1078729940501185  F  F  F
  0.3329036486324598  0.1632275607928965  0.1065371552332327  F  F  F
  0.3882025760524812  0.2731495664229886  0.1051683724779330  F  F  F
  0.4996761854480274  0.1641835170661295  0.1072525171957417  F  F  F
  0.5554449650607051  0.2744986411128885  0.1066729643810250  F  F  F
  0.6676345071206553  0.1663463697324196  0.1088923320738278  F  F  F
  0.7232701423088064  0.2772086786644414  0.1088764071506292  F  F  F
  0.8356466667540317  0.1677038568106098  0.1095864093287723  F  F  F
  0.8918124985942663  0.2787283994961857  0.1096169428231052  F  F  F
  0.0038096204202086  0.3345624469057218  0.1096512098065128  F  F  F
  0.0577767721836909  0.4454474266304603  0.1097365030074578  F  F  F
  0.1754750256749553  0.3376232194930986  0.1088679955786819  F  F  F
  0.2301007047725926  0.4501268411958471  0.1092647224054284  F  F  F
  0.5001852598615375  0.3291631393098610  0.1053173185131170  F  F  F
  0.6663792421928076  0.3312849482009533  0.1080886458380640  F  F  F
  0.7188084224137822  0.4420240207786709  0.1088792721937650  F  F  F
  0.8346855112073570  0.3332625132627215  0.1095089017461950  F  F  F
  0.8882963122056278  0.4441043788540842  0.1097134972765561  F  F  F
  0.0000412541478577  0.4998238093935717  0.1098638061606354  F  F  F
  0.0536284792791167  0.6106661775070134  0.1099362895424097  F  F  F
  0.1695531149125724  0.5019222284641107  0.1096020944412009  F  F  F
  0.2219342708638991  0.6126721420447500  0.1092220504214105  F  F  F
  0.3881963540440896  0.6149259580794563  0.1075888090531936  F  F  F
  0.6582685558143929  0.4938047271840059  0.1085772975687151  F  F  F
  0.7128338143277566  0.6062935008856826  0.1099400954802335  F  F  F
  0.8305670797387276  0.4984793001881470  0.1096418468956050  F  F  F
  0.8845145851094613  0.6093585235101650  0.1100111584834326  F  F  F
  0.9965139554774857  0.6652015476845626  0.1100349651266868  F  F  F
  0.0526875265045719  0.7762318568111156  0.1099255880070752  F  F  F
  0.1650498266022175  0.6667474388210729  0.1096161190085502  F  F  F
  0.2206952699799168  0.7776278563636273  0.1094254030624420  F  F  F
  0.3328985434723505  0.6695095145023897  0.1082862951073654  F  F  F
  0.3886664368145120  0.7798479400117972  0.1085690598510018  F  F  F
  0.5000619674273262  0.6708557082332119  0.1081220823537792  F  F  F
  0.5554044043481682  0.7807449078246611  0.1087221237314521  F  F  F
  0.6581943708644841  0.6641272644016312  0.1105217934872635  F  F  F
  0.7187413988226967  0.7764848174234366  0.1105136549269972  F  F  F
  0.8262537376010749  0.6630021753067885  0.1102713888884087  F  F  F
  0.8845117373938967  0.7749082495508683  0.1104188293684542  F  F  F
  0.9965203053782041  0.8310861967760167  0.1101118651199067  F  F  F
  0.0536411547185389  0.9427430749524073  0.1097092038479055  F  F  F
  0.1643730903457006  0.8320926636392474  0.1095262559290518  F  F  F
  0.2207054989547224  0.9428936490236672  0.1089718866978034  F  F  F
  0.3320756120228584  0.8336576330211242  0.1090616562813564  F  F  F
  0.3883660103310080  0.9441137650387369  0.1088324549707042  F  F  F
  0.4996551796333378  0.8353381892352038  0.1086606474543725  F  F  F
  0.5562562298422238  0.9457378737299449  0.1091442206573959  F  F  F
  0.6663735000460078  0.8348732109510113  0.1098816016049038  F  F  F
  0.7232670998920521  0.9458332902149343  0.1099464139398533  F  F  F
  0.8305351010690672  0.8318099097969638  0.1104302112171739  F  F  F
  0.8882786256451068  0.9439349876477373  0.1101401367785433  F  F  F
  0.4404089915014571  0.4596463546742716  0.2540666773936014  T  T  T
  0.3377197083375469  0.3291850465334565  0.1053573116887042  F  F  F
  0.5506322896557646  0.4356703885564869  0.1057696209161383  F  F  F
  0.3378421049333615  0.5083536251805781  0.1080643538842476  F  F  F
  0.5503715771098144  0.6145659282865428  0.1095423295061034  F  F  F
  0.4439977685954438  0.4715579915825683  0.1246727576259288  F  F  F
  0.4449267406204695  0.3909423226084391  0.2947719651066283  T  T  T
  0.4309617602034180  0.5370128879951021  0.2949578670953444  T  T  T
  0.4289449733288067  0.5244174740545742  0.3596811064600680  T  T  T
 
  0.00000000E+00  0.00000000E+00  0.00000000E+00
  0.00000000E+00  0.00000000E+00  0.00000000E+00
  0.00000000E+00  0.00000000E+00  0.00000000E+00
  0.00000000E+00  0.00000000E+00  0.00000000E+00
  0.00000000E+00  0.00000000E+00  0.00000000E+00
  0.00000000E+00  0.00000000E+00  0.00000000E+00
  0.00000000E+00  0.00000000E+00  0.00000000E+00
  0.00000000E+00  0.00000000E+00  0.00000000E+00
  0.00000000E+00  0.00000000E+00  0.00000000E+00
  0.00000000E+00  0.00000000E+00  0.00000000E+00
  0.00000000E+00  0.00000000E+00  0.00000000E+00
  0.00000000E+00  0.00000000E+00  0.00000000E+00
  0.00000000E+00  0.00000000E+00  0.00000000E+00
  0.00000000E+00  0.00000000E+00  0.00000000E+00
  0.00000000E+00  0.00000000E+00  0.00000000E+00
  0.00000000E+00  0.00000000E+00  0.00000000E+00
  0.00000000E+00  0.00000000E+00  0.00000000E+00
  0.00000000E+00  0.00000000E+00  0.00000000E+00
  0.00000000E+00  0.00000000E+00  0.00000000E+00
  0.00000000E+00  0.00000000E+00  0.00000000E+00
  0.00000000E+00  0.00000000E+00  0.00000000E+00
  0.00000000E+00  0.00000000E+00  0.00000000E+00
  0.00000000E+00  0.00000000E+00  0.00000000E+00
  0.00000000E+00  0.00000000E+00  0.00000000E+00
  0.00000000E+00  0.00000000E+00  0.00000000E+00
  0.00000000E+00  0.00000000E+00  0.00000000E+00
  0.00000000E+00  0.00000000E+00  0.00000000E+00
  0.00000000E+00  0.00000000E+00  0.00000000E+00
  0.00000000E+00  0.00000000E+00  0.00000000E+00
  0.00000000E+00  0.00000000E+00  0.00000000E+00
  0.00000000E+00  0.00000000E+00  0.00000000E+00
  0.00000000E+00  0.00000000E+00  0.00000000E+00
  0.00000000E+00  0.00000000E+00  0.00000000E+00
  0.00000000E+00  0.00000000E+00  0.00000000E+00
  0.00000000E+00  0.00000000E+00  0.00000000E+00
  0.00000000E+00  0.00000000E+00  0.00000000E+00
  0.00000000E+00  0.00000000E+00  0.00000000E+00
  0.00000000E+00  0.00000000E+00  0.00000000E+00
  0.00000000E+00  0.00000000E+00  0.00000000E+00
  0.00000000E+00  0.00000000E+00  0.00000000E+00
  0.00000000E+00  0.00000000E+00  0.00000000E+00
  0.00000000E+00  0.00000000E+00  0.00000000E+00
  0.00000000E+00  0.00000000E+00  0.00000000E+00
  0.00000000E+00  0.00000000E+00  0.00000000E+00
  0.00000000E+00  0.00000000E+00  0.00000000E+00
  0.00000000E+00  0.00000000E+00  0.00000000E+00
  0.00000000E+00  0.00000000E+00  0.00000000E+00
  0.00000000E+00  0.00000000E+00  0.00000000E+00
  0.00000000E+00  0.00000000E+00  0.00000000E+00
  0.00000000E+00  0.00000000E+00  0.00000000E+00
  0.00000000E+00  0.00000000E+00  0.00000000E+00
  0.00000000E+00  0.00000000E+00  0.00000000E+00
  0.00000000E+00  0.00000000E+00  0.00000000E+00
  0.00000000E+00  0.00000000E+00  0.00000000E+00
  0.00000000E+00  0.00000000E+00  0.00000000E+00
  0.00000000E+00  0.00000000E+00  0.00000000E+00
  0.00000000E+00  0.00000000E+00  0.00000000E+00
  0.00000000E+00  0.00000000E+00  0.00000000E+00
  0.00000000E+00  0.00000000E+00  0.00000000E+00
  0.00000000E+00  0.00000000E+00  0.00000000E+00
  0.00000000E+00  0.00000000E+00  0.00000000E+00
  0.00000000E+00  0.00000000E+00  0.00000000E+00
  0.00000000E+00  0.00000000E+00  0.00000000E+00
  0.00000000E+00  0.00000000E+00  0.00000000E+00
  0.00000000E+00  0.00000000E+00  0.00000000E+00
  0.00000000E+00  0.00000000E+00  0.00000000E+00
  0.00000000E+00  0.00000000E+00  0.00000000E+00
  0.00000000E+00  0.00000000E+00  0.00000000E+00
  0.00000000E+00  0.00000000E+00  0.00000000E+00
  0.00000000E+00  0.00000000E+00  0.00000000E+00
  0.00000000E+00  0.00000000E+00  0.00000000E+00
  0.00000000E+00  0.00000000E+00  0.00000000E+00
  0.00000000E+00  0.00000000E+00  0.00000000E+00
  0.00000000E+00  0.00000000E+00  0.00000000E+00
  0.00000000E+00  0.00000000E+00  0.00000000E+00
