P    Ru   C    O                        
   1.00000000000000     
    13.2544002533000000    0.0000000000000000    0.0000000000000000
     0.0000000000000000   13.1288995743000001    0.0000000000000000
     0.0000000000000000    0.0000000000000000   20.0000000000000000
   P    Ru   C    O 
    48     1     1     3
Selective dynamics
Direct
  0.0657813442455286  0.2083905718014722  0.0425279898814593   T   T   T
  0.1920958770762374  0.3194320376518088  0.0424058987552599   T   T   T
  0.1900246458083830  0.0381416570044326  0.1454841229075679   T   T   T
  0.0654459057653032  0.1514733727449718  0.1480146969276938   T   T   T
  0.3106206880278615  0.1995194283742437  0.0380371551909554   T   T   T
  0.4406828451610588  0.3059545466325609  0.0269647718982294   T   T   T
  0.4398072898147759  0.0380286330244367  0.1459112281708321   T   T   T
  0.3151568256840581  0.1510245618736395  0.1456161737823001   T   T   T
  0.5703789800723147  0.1989641616364502  0.0375102214008061   T   T   T
  0.6880668702999589  0.3194848514058748  0.0422093422579769   T   T   T
  0.6896383070612216  0.0386424655931706  0.1465923055915173   T   T   T
  0.5643300611333961  0.1512293671855346  0.1453465607626779   T   T   T
  0.8139493371477823  0.2083166158344217  0.0432960293895027   T   T   T
  0.9397577213442362  0.3200393103114405  0.0412169058251170   T   T   T
  0.9399318384049936  0.0388183313902872  0.1471724454719201   T   T   T
  0.8146804166010910  0.1516953640741786  0.1488814009990255   T   T   T
  0.0646768260323385  0.5376604796089591  0.0341645427472078   T   T   T
  0.1892506457368514  0.6515805092725924  0.0310423326109974   T   T   T
  0.1924454981057977  0.3813376948855691  0.1481144420461488   T   T   T
  0.0655226223710327  0.4916634144616174  0.1421748583626599   T   T   T
  0.3161323957760186  0.5404197113959203  0.0283016636437706   T   T   T
  0.4392228391038716  0.6532847008688065  0.0293279961266945   T   T   T
  0.4389899804347859  0.3592797123088668  0.1321504112556912   T   T   T
  0.3270019688387113  0.4841466693596674  0.1350294185344269   T   T   T
  0.5625453514394929  0.5403024408400809  0.0323884154147280   T   T   T
  0.6895390438788375  0.6507990803211354  0.0335393261619565   T   T   T
  0.6874363242329192  0.3794757836133016  0.1487449182815478   T   T   T
  0.5520836159932104  0.4825788137148182  0.1384685535979878   T   T   T
  0.8140732755124708  0.5367920022045758  0.0352250643452579   T   T   T
  0.9390010541726628  0.6504388441149678  0.0344313017586408   T   T   T
  0.9403991670592059  0.3782212847413574  0.1460672631810061   T   T   T
  0.8142490637741877  0.4907097352619658  0.1430904235458503   T   T   T
  0.0634675335500178  0.8733039437589276  0.0380058131024908   T   T   T
  0.1883930545836823  0.9860108291247868  0.0386632719113763   T   T   T
  0.1896304560690991  0.7019685329484044  0.1380372499604574   T   T   T
  0.0644382948638743  0.8136085834415351  0.1428461333730716   T   T   T
  0.3146998546147203  0.8744208432839560  0.0373234952327208   T   T   T
  0.4405065528337888  0.9864710926197667  0.0393654640888781   T   T   T
  0.4364166834126278  0.7036728850797642  0.1383352233831243   T   T   T
  0.3121589866297318  0.8172392834079257  0.1427694951823638   T   T   T
  0.5647006642394732  0.8729146148539584  0.0399558146461981   T   T   T
  0.6905124057538085  0.9845930386865671  0.0401833097886379   T   T   T
  0.6887792646053091  0.6995542771560355  0.1406616451318509   T   T   T
  0.5647335970826146  0.8128494083565956  0.1456573662323913   T   T   T
  0.8150167615096124  0.8719098989927574  0.0394763154686023   T   T   T
  0.9387152322341958  0.9862150027835346  0.0404623461725626   T   T   T
  0.9396902239113529  0.7008862333635371  0.1414839663083526   T   T   T
  0.8139969772213481  0.8125531888019283  0.1446010816278368   T   T   T
  0.4272245574163244  0.5711800497536439  0.2129408084455157   T   T   T
  0.3287468284691941  0.6348338898220214  0.2664640212641105   T   T   T
  0.5083842721179234  0.5647493854543111  0.2992612258629189   T   T   T
  0.4700704025871743  0.4675311300796947  0.2848401096784342   T   T   T
  0.2730350702527238  0.6744178659337877  0.3030718113922868   T   T   T
 
  0.00000000E+00  0.00000000E+00  0.00000000E+00
  0.00000000E+00  0.00000000E+00  0.00000000E+00
  0.00000000E+00  0.00000000E+00  0.00000000E+00
  0.00000000E+00  0.00000000E+00  0.00000000E+00
  0.00000000E+00  0.00000000E+00  0.00000000E+00
  0.00000000E+00  0.00000000E+00  0.00000000E+00
  0.00000000E+00  0.00000000E+00  0.00000000E+00
  0.00000000E+00  0.00000000E+00  0.00000000E+00
  0.00000000E+00  0.00000000E+00  0.00000000E+00
  0.00000000E+00  0.00000000E+00  0.00000000E+00
  0.00000000E+00  0.00000000E+00  0.00000000E+00
  0.00000000E+00  0.00000000E+00  0.00000000E+00
  0.00000000E+00  0.00000000E+00  0.00000000E+00
  0.00000000E+00  0.00000000E+00  0.00000000E+00
  0.00000000E+00  0.00000000E+00  0.00000000E+00
  0.00000000E+00  0.00000000E+00  0.00000000E+00
  0.00000000E+00  0.00000000E+00  0.00000000E+00
  0.00000000E+00  0.00000000E+00  0.00000000E+00
  0.00000000E+00  0.00000000E+00  0.00000000E+00
  0.00000000E+00  0.00000000E+00  0.00000000E+00
  0.00000000E+00  0.00000000E+00  0.00000000E+00
  0.00000000E+00  0.00000000E+00  0.00000000E+00
  0.00000000E+00  0.00000000E+00  0.00000000E+00
  0.00000000E+00  0.00000000E+00  0.00000000E+00
  0.00000000E+00  0.00000000E+00  0.00000000E+00
  0.00000000E+00  0.00000000E+00  0.00000000E+00
  0.00000000E+00  0.00000000E+00  0.00000000E+00
  0.00000000E+00  0.00000000E+00  0.00000000E+00
  0.00000000E+00  0.00000000E+00  0.00000000E+00
  0.00000000E+00  0.00000000E+00  0.00000000E+00
  0.00000000E+00  0.00000000E+00  0.00000000E+00
  0.00000000E+00  0.00000000E+00  0.00000000E+00
  0.00000000E+00  0.00000000E+00  0.00000000E+00
  0.00000000E+00  0.00000000E+00  0.00000000E+00
  0.00000000E+00  0.00000000E+00  0.00000000E+00
  0.00000000E+00  0.00000000E+00  0.00000000E+00
  0.00000000E+00  0.00000000E+00  0.00000000E+00
  0.00000000E+00  0.00000000E+00  0.00000000E+00
  0.00000000E+00  0.00000000E+00  0.00000000E+00
  0.00000000E+00  0.00000000E+00  0.00000000E+00
  0.00000000E+00  0.00000000E+00  0.00000000E+00
  0.00000000E+00  0.00000000E+00  0.00000000E+00
  0.00000000E+00  0.00000000E+00  0.00000000E+00
  0.00000000E+00  0.00000000E+00  0.00000000E+00
  0.00000000E+00  0.00000000E+00  0.00000000E+00
  0.00000000E+00  0.00000000E+00  0.00000000E+00
  0.00000000E+00  0.00000000E+00  0.00000000E+00
  0.00000000E+00  0.00000000E+00  0.00000000E+00
  0.00000000E+00  0.00000000E+00  0.00000000E+00
  0.00000000E+00  0.00000000E+00  0.00000000E+00
  0.00000000E+00  0.00000000E+00  0.00000000E+00
  0.00000000E+00  0.00000000E+00  0.00000000E+00
  0.00000000E+00  0.00000000E+00  0.00000000E+00
