P    Ru   C    O 
   1.00000000000000     
  13.2544002533000000   0.0000000000000000   0.0000000000000000
   0.0000000000000000  13.1288995743000001   0.0000000000000000
   0.0000000000000000   0.0000000000000000  20.0000000000000000
P    Ru   C    O 
48  1  1  3  
Selective dynamics
Direct
  0.0662707429476797  0.2096829882473730  0.0435225681928983 T T T
  0.1925721905746300  0.3208800590372150  0.0428811301033818 T T T
  0.1900312497096270  0.0401014459297713  0.1469082596059580 T T T
  0.0653380006754460  0.1535003918680500  0.1491794513644390 T T T
  0.3100204409410030  0.1998936408683820  0.0383065010455539 T T T
  0.4401666108952970  0.3056047540199600  0.0253867901763556 T T T
  0.4399546662030360  0.0400516804955657  0.1469255676556000 T T T
  0.3152444706578380  0.1529276902632620  0.1461734725003860 T T T
  0.5702248397906620  0.1992788205787190  0.0373690472815298 T T T
  0.6888395332515170  0.3193402726772230  0.0407609512858116 T T T
  0.6893262119880460  0.0403570934986206  0.1473223508180940 T T T
  0.5643667834342520  0.1533040573627530  0.1456106634239300 T T T
  0.8148044437006660  0.2081748317777960  0.0428886207901442 T T T
  0.9400812969684080  0.3207724028100780  0.0412310209656823 T T T
  0.9396753678317470  0.0407440064543820  0.1487429826319300 T T T
  0.8142297929160380  0.1536006650999790  0.1489649887397560 T T T
  0.0651249853450722  0.5394617240059600  0.0340631191962117 T T T
  0.1894290253070990  0.6537564229406240  0.0315280721168847 T T T
  0.1936786169074690  0.3839625562058370  0.1485055446587400 T T T
  0.0657622494963590  0.4933481095101660  0.1419908420687430 T T T
  0.3161238120501510  0.5426217248343330  0.0283567036217605 T T T
  0.4390800833346300  0.6555105602166050  0.0272072778016224 T T T
  0.4401340492209300  0.3615634931999380  0.1300518170564690 T T T
  0.3292539770355770  0.4867006900344820  0.1353430053006760 T T T
  0.5631664210822720  0.5428792912672190  0.0271667744815858 T T T
  0.6900082983260770  0.6536323863396870  0.0329559091965095 T T T
  0.6874870311183801  0.3809183666682610  0.1468508268163330 T T T
  0.5543840590108789  0.4835474766325160  0.1329708924693090 T T T
  0.8142263068294540  0.5391263777286780  0.0344549952878523 T T T
  0.9394991737859330  0.6523883163442510  0.0345024833412211 T T T
  0.9403204291921480  0.3801331942376650  0.1457948587404730 T T T
  0.8141617852677570  0.4924384986254820  0.1421080589200300 T T T
  0.0636717023296214  0.8740770495138220  0.0400684266007616 T T T
  0.1883297185748420  0.9869273554378420  0.0403703469427228 T T T
  0.1900161530874630  0.7009627065584710  0.1390827555553780 T T T
  0.0647011719154591  0.8131381544975440  0.1446844399226420 T T T
  0.3143331633992190  0.8753473595013400  0.0391388122669909 T T T
  0.4399634178435290  0.9872948050740010  0.0406220534867501 T T T
  0.4368492387326410  0.7037932100703370  0.1371829496636820 T T T
  0.3122966660310170  0.8164557776625330  0.1445025032233360 T T T
  0.5642375633540410  0.8739166379026240  0.0406862850924554 T T T
  0.6899371934171230  0.9856715233957370  0.0410834992629958 T T T
  0.6884131992144800  0.6995238341076800  0.1408208226568920 T T T
  0.5646642209572900  0.8132180544551700  0.1462509405104560 T T T
  0.8150783165345530  0.8735085412128070  0.0401685424400284 T T T
  0.9392702176988830  0.9872281422784890  0.0422992584793320 T T T
  0.9392289373701460  0.7011909456449670  0.1418203629907280 T T T
  0.8133495252612020  0.8127887212518490  0.1448815621791440 T T T
  0.4382769956506320  0.5697881454795140  0.2089657447904050 T T T
  0.3373971359124250  0.6171290114448030  0.2717288060103940 T T T
  0.5105874228106020  0.5732993130151340  0.2905574885158230 T T T
  0.5090325418415130  0.4855337284785150  0.2777211635635690 T T T
  0.2707711050172530  0.6479579957359790  0.3012401611896250 T T T
