CONTCAR                                 
   1.00000000000000     
    14.7784004211000006    0.0000000000000000    0.0000000000000000
    -7.3892002106000003   12.7984701919999999    0.0000000000000000
     0.0000000000000000    0.0000000000000000   15.0000000000000000
   C    N    Ni   O    H 
    67     4     1     2     1
Direct
  0.0000613396955515 -0.0000368019500104  0.1105783828687925
  0.0574843453530073  0.1118192330000627  0.1098537782668215
  0.1650392067595206  0.9979120622825990  0.1102778613471521
  0.2218513287902992  0.1087634967221870  0.1089685653883965
  0.3322582266777918  0.9982803942680791  0.1107681108462819
  0.3888369219589872  0.1085289760859075  0.1095683343796372
  0.5002142112413733  0.0001669297941814  0.1110148266945397
  0.5565289126598388  0.1104206145292750  0.1107191881270712
  0.6679606909418406  0.0015195842628293  0.1105611505743124
  0.7242935761063877  0.1121648976174845  0.1107874547517026
  0.8350347982848260  0.0016774203176043  0.1105257700188442
  0.8920312965296722  0.1131345553817485  0.1103621406028351
  0.0037664556582139  0.1690284403313289  0.1097837710479800
  0.0619974653377417  0.2810096385102508  0.1091792496147684
  0.1690483610341216  0.1668219965020301  0.1084208287418296
  0.2294835540495528  0.2789441474188543  0.1055956629846545
  0.3329941007742038  0.1630103653648667  0.1076143199348909
  0.3878789040178390  0.2727747754042679  0.1030413582605875
  0.4999334154351617  0.1640667180516358  0.1096015802274171
  0.5557668623511698  0.2743990996695281  0.1077169841953150
  0.6679414640655961  0.1664737783641765  0.1106438767687997
  0.7237378186277948  0.2772602822041081  0.1102639320991890
  0.8359320706251876  0.1679800298567629  0.1105699498188372
  0.8920411433763451  0.2789219772575221  0.1105180318726231
  0.0037594236451429  0.3347581888722524  0.1100411198365171
  0.0575629821567440  0.4457207765506859  0.1101932060823098
  0.1754506643718637  0.3377334035007231  0.1069047755077656
  0.2296647809810156  0.4505990744311377  0.1063864482841823
  0.5008539125682195  0.3292942111981342  0.1029741999592084
  0.6669227219452902  0.3313213921798983  0.1090332659284405
  0.7196962844705066  0.4421452289540894  0.1086207083880639
  0.8350301586211722  0.3334025039850297  0.1105872692345139
  0.8886828424419650  0.4442855688313889  0.1106557449644023
  0.0001377179553817  0.5001724754706458  0.1106344317761820
  0.0537543613527833  0.6110423819043772  0.1104659963792278
  0.1691490930599449  0.5022851657226162  0.1090365938516001
  0.2218408053449067  0.6131096608690163  0.1093650503632451
  0.3879907012491203  0.6151899386217755  0.1048059600595318
  0.6592368319281349  0.4938200961038748  0.1057310157488507
  0.7133241817434710  0.6066671241839920  0.1076683306644018
  0.8312661631865972  0.4987207619918678  0.1100894213986352
  0.8850454319713195  0.6096780706888556  0.1099652777802214
  0.9967498180732485  0.6655150295135945  0.1103913118014493
  0.0528490258972011  0.7764561987503752  0.1105947217568422
  0.1650329658886923  0.6671782464032812  0.1102334978338091
  0.2208374522791797  0.7779767761991645  0.1106096015376289
  0.3330255075696806  0.6700719627944905  0.1082788993746463
  0.3888600735482988  0.7804518154108635  0.1096517428437502
  0.5008007260647099  0.6716108844991672  0.1055764195218765
  0.5557652804363815  0.7814189471092877  0.1084245697869240
  0.6591473242297506  0.6653044912012001  0.1078450749263900
  0.7196449266955682  0.7775141470869334  0.1095148837367222
  0.8267959613023446  0.6634113269184366  0.1095313151623080
  0.8850037867972549  0.7753818140386433  0.1102018324809859
  0.9967458676704817  0.8312852379683783  0.1105475873811271
  0.0537401041561459  0.9427575500799731  0.1105703884448695
  0.1644981622654487  0.8322739742500326  0.1108543393139376
  0.2208290320479272  0.9429402290189823  0.1107206960942178
  0.3322498939832546  0.8340960171618054  0.1106500943577663
  0.3885727963206450  0.9443532891363524  0.1110562127667948
  0.4999359912086860  0.8359869968093042  0.1095559172368082
  0.5565398469347874  0.9462356862478291  0.1105633292435671
  0.6669299919524672  0.8356659897133440  0.1096653674108033
  0.7237489847447071  0.9465209160239233  0.1103389409785333
  0.8312439659184123  0.8325555617567787  0.1103015745704223
  0.8886818886766503  0.9444371613855795  0.1106616859048406
  0.4385797878243298  0.4566952622743877  0.2538129955580523
  0.3367121192674524  0.3278141288002660  0.1014241977177550
  0.5520640141465918  0.4355493032903575  0.1009870741894016
  0.3369723411471644  0.5088739154772515  0.1032196142503991
  0.5517699863269349  0.6162525694630459  0.1059851750195892
  0.4443768945269958  0.4716749992423969  0.1254562492766134
  0.4447831791598622  0.3885157501551524  0.2939394579314914
  0.4246447551854952  0.5316051872996389  0.2942230586227593
  0.4208819634076338  0.5184499412121633  0.3587583603263017
 
  0.00000000E+00  0.00000000E+00  0.00000000E+00
  0.00000000E+00  0.00000000E+00  0.00000000E+00
  0.00000000E+00  0.00000000E+00  0.00000000E+00
  0.00000000E+00  0.00000000E+00  0.00000000E+00
  0.00000000E+00  0.00000000E+00  0.00000000E+00
  0.00000000E+00  0.00000000E+00  0.00000000E+00
  0.00000000E+00  0.00000000E+00  0.00000000E+00
  0.00000000E+00  0.00000000E+00  0.00000000E+00
  0.00000000E+00  0.00000000E+00  0.00000000E+00
  0.00000000E+00  0.00000000E+00  0.00000000E+00
  0.00000000E+00  0.00000000E+00  0.00000000E+00
  0.00000000E+00  0.00000000E+00  0.00000000E+00
  0.00000000E+00  0.00000000E+00  0.00000000E+00
  0.00000000E+00  0.00000000E+00  0.00000000E+00
  0.00000000E+00  0.00000000E+00  0.00000000E+00
  0.00000000E+00  0.00000000E+00  0.00000000E+00
  0.00000000E+00  0.00000000E+00  0.00000000E+00
  0.00000000E+00  0.00000000E+00  0.00000000E+00
  0.00000000E+00  0.00000000E+00  0.00000000E+00
  0.00000000E+00  0.00000000E+00  0.00000000E+00
  0.00000000E+00  0.00000000E+00  0.00000000E+00
  0.00000000E+00  0.00000000E+00  0.00000000E+00
  0.00000000E+00  0.00000000E+00  0.00000000E+00
  0.00000000E+00  0.00000000E+00  0.00000000E+00
  0.00000000E+00  0.00000000E+00  0.00000000E+00
  0.00000000E+00  0.00000000E+00  0.00000000E+00
  0.00000000E+00  0.00000000E+00  0.00000000E+00
  0.00000000E+00  0.00000000E+00  0.00000000E+00
  0.00000000E+00  0.00000000E+00  0.00000000E+00
  0.00000000E+00  0.00000000E+00  0.00000000E+00
  0.00000000E+00  0.00000000E+00  0.00000000E+00
  0.00000000E+00  0.00000000E+00  0.00000000E+00
  0.00000000E+00  0.00000000E+00  0.00000000E+00
  0.00000000E+00  0.00000000E+00  0.00000000E+00
  0.00000000E+00  0.00000000E+00  0.00000000E+00
  0.00000000E+00  0.00000000E+00  0.00000000E+00
  0.00000000E+00  0.00000000E+00  0.00000000E+00
  0.00000000E+00  0.00000000E+00  0.00000000E+00
  0.00000000E+00  0.00000000E+00  0.00000000E+00
  0.00000000E+00  0.00000000E+00  0.00000000E+00
  0.00000000E+00  0.00000000E+00  0.00000000E+00
  0.00000000E+00  0.00000000E+00  0.00000000E+00
  0.00000000E+00  0.00000000E+00  0.00000000E+00
  0.00000000E+00  0.00000000E+00  0.00000000E+00
  0.00000000E+00  0.00000000E+00  0.00000000E+00
  0.00000000E+00  0.00000000E+00  0.00000000E+00
  0.00000000E+00  0.00000000E+00  0.00000000E+00
  0.00000000E+00  0.00000000E+00  0.00000000E+00
  0.00000000E+00  0.00000000E+00  0.00000000E+00
  0.00000000E+00  0.00000000E+00  0.00000000E+00
  0.00000000E+00  0.00000000E+00  0.00000000E+00
  0.00000000E+00  0.00000000E+00  0.00000000E+00
  0.00000000E+00  0.00000000E+00  0.00000000E+00
  0.00000000E+00  0.00000000E+00  0.00000000E+00
  0.00000000E+00  0.00000000E+00  0.00000000E+00
  0.00000000E+00  0.00000000E+00  0.00000000E+00
  0.00000000E+00  0.00000000E+00  0.00000000E+00
  0.00000000E+00  0.00000000E+00  0.00000000E+00
  0.00000000E+00  0.00000000E+00  0.00000000E+00
  0.00000000E+00  0.00000000E+00  0.00000000E+00
  0.00000000E+00  0.00000000E+00  0.00000000E+00
  0.00000000E+00  0.00000000E+00  0.00000000E+00
  0.00000000E+00  0.00000000E+00  0.00000000E+00
  0.00000000E+00  0.00000000E+00  0.00000000E+00
  0.00000000E+00  0.00000000E+00  0.00000000E+00
  0.00000000E+00  0.00000000E+00  0.00000000E+00
  0.00000000E+00  0.00000000E+00  0.00000000E+00
  0.00000000E+00  0.00000000E+00  0.00000000E+00
  0.00000000E+00  0.00000000E+00  0.00000000E+00
  0.00000000E+00  0.00000000E+00  0.00000000E+00
  0.00000000E+00  0.00000000E+00  0.00000000E+00
  0.00000000E+00  0.00000000E+00  0.00000000E+00
  0.00000000E+00  0.00000000E+00  0.00000000E+00
  0.00000000E+00  0.00000000E+00  0.00000000E+00
  0.00000000E+00  0.00000000E+00  0.00000000E+00
