P    Ru   C    O                        
   1.00000000000000     
    13.2544002533000000    0.0000000000000000    0.0000000000000000
     0.0000000000000000   13.1288995743000001    0.0000000000000000
     0.0000000000000000    0.0000000000000000   20.0000000000000000
   P    Ru   C    O 
    48     1     1     3
Selective dynamics
Direct
  0.0681496755119966  0.2088412080397859  0.0434049954331712   F   F   F
  0.1944415012217462  0.3199886718804521  0.0427931886347110   F   F   F
  0.1911765181757232  0.0377858712927619  0.1461306551888981   F   F   F
  0.0668711382902814  0.1516426317394703  0.1487885786390919   F   F   F
  0.3107393920583519  0.1979302277896409  0.0378816777060109   F   F   F
  0.4418757995001101  0.3022412465520077  0.0242895937917780   F   F   F
  0.4409178444747468  0.0376577150732231  0.1460477197101682   F   F   F
  0.3163318948202516  0.1506887247236435  0.1456115181249018   F   F   F
  0.5718984504108846  0.1961585010537803  0.0368906734650736   F   F   F
  0.6895971317956011  0.3173902630867431  0.0404532932268538   F   F   F
  0.6907999993101228  0.0378030959330928  0.1463740050922340   F   F   F
  0.5656040894738865  0.1506849126625553  0.1449289329139418   F   F   F
  0.8159943492457842  0.2066044706313335  0.0424631414106855   F   F   F
  0.9413654204879478  0.3193088454682353  0.0410941903285647   F   F   F
  0.9411748843256191  0.0389837767687169  0.1477004625333223   F   F   F
  0.8155055987586408  0.1514706774513357  0.1482655812776343   F   F   F
  0.0661211526490533  0.5377277988020666  0.0333950448330782   F   F   F
  0.1903097797918960  0.6523361867062576  0.0310521697253634   F   F   F
  0.1953442695815042  0.3837960295016813  0.1484187043743646   F   F   F
  0.0665671351492776  0.4921196424712662  0.1413202676739616   F   F   F
  0.3171697871186581  0.5414938987189544  0.0265071610202554   F   F   F
  0.4409347877094376  0.6537366675222671  0.0248835943537244   F   F   F
  0.4410716442709628  0.3589396386890584  0.1285975172478260   F   F   F
  0.3315558483127177  0.4850589831615721  0.1328599702861268   F   F   F
  0.5640354170191415  0.5401196213899055  0.0289592005013404   F   F   F
  0.6908531903566626  0.6510573827637316  0.0321776360512516   F   F   F
  0.6877910099177669  0.3792693739879809  0.1458436971760548   F   F   F
  0.5531233945561169  0.4835073073014655  0.1352870065157248   F   F   F
  0.8153900932331481  0.5369841632246661  0.0339457751677301   F   F   F
  0.9403579485529292  0.6505362149208693  0.0339378403945290   F   F   F
  0.9412716511185408  0.3783857573779841  0.1456014709972919   F   F   F
  0.8146678312044600  0.4901555854589432  0.1415785413399817   F   F   F
  0.0648828103614463  0.8723197834060272  0.0389404867412466   F   F   F
  0.1890099135895724  0.9856686757175055  0.0394282367129435   F   F   F
  0.1916726440090173  0.6990294460006794  0.1387156617240635   F   F   F
  0.0661792872187945  0.8115273069208655  0.1436261756754647   F   F   F
  0.3149081470235302  0.8739723089286784  0.0381394617780728   F   F   F
  0.4408704956466707  0.9855954453300768  0.0397419230835894   F   F   F
  0.4377076357963858  0.7007892743252953  0.1345324721900951   F   F   F
  0.3141423977784044  0.8144978752562437  0.1432513806535525   F   F   F
  0.5654830644280580  0.8725690528194221  0.0396657916149792   F   F   F
  0.6912988185166000  0.9842009463752674  0.0401164172130066   F   F   F
  0.6897157573986874  0.6987049257718425  0.1395009877386286   F   F   F
  0.5649638485306312  0.8113768499736622  0.1447871328173704   F   F   F
  0.8164302734808970  0.8719898230410976  0.0393530611538750   F   F   F
  0.9407444056059120  0.9856811324155217  0.0412178654317472   F   F   F
  0.9404978554875285  0.6998163616823732  0.1410903376733827   F   F   F
  0.8149305676509755  0.8117227522981096  0.1440345826556424   F   F   F
  0.4308333766215640  0.5684189718665209  0.2065936085492552   F   F   F
  0.3474058661995656  0.6282901885394097  0.2789489453548342   T   T   T
  0.4417315940364759  0.5827752823884893  0.3183021293956614   T   T   T
  0.4378679887979899  0.4786909309410703  0.2913225397989549   T   T   T
  0.2860783558940981  0.6807640338136026  0.3040346719740916   T   T   T
 
  0.00000000E+00  0.00000000E+00  0.00000000E+00
  0.00000000E+00  0.00000000E+00  0.00000000E+00
  0.00000000E+00  0.00000000E+00  0.00000000E+00
  0.00000000E+00  0.00000000E+00  0.00000000E+00
  0.00000000E+00  0.00000000E+00  0.00000000E+00
  0.00000000E+00  0.00000000E+00  0.00000000E+00
  0.00000000E+00  0.00000000E+00  0.00000000E+00
  0.00000000E+00  0.00000000E+00  0.00000000E+00
  0.00000000E+00  0.00000000E+00  0.00000000E+00
  0.00000000E+00  0.00000000E+00  0.00000000E+00
  0.00000000E+00  0.00000000E+00  0.00000000E+00
  0.00000000E+00  0.00000000E+00  0.00000000E+00
  0.00000000E+00  0.00000000E+00  0.00000000E+00
  0.00000000E+00  0.00000000E+00  0.00000000E+00
  0.00000000E+00  0.00000000E+00  0.00000000E+00
  0.00000000E+00  0.00000000E+00  0.00000000E+00
  0.00000000E+00  0.00000000E+00  0.00000000E+00
  0.00000000E+00  0.00000000E+00  0.00000000E+00
  0.00000000E+00  0.00000000E+00  0.00000000E+00
  0.00000000E+00  0.00000000E+00  0.00000000E+00
  0.00000000E+00  0.00000000E+00  0.00000000E+00
  0.00000000E+00  0.00000000E+00  0.00000000E+00
  0.00000000E+00  0.00000000E+00  0.00000000E+00
  0.00000000E+00  0.00000000E+00  0.00000000E+00
  0.00000000E+00  0.00000000E+00  0.00000000E+00
  0.00000000E+00  0.00000000E+00  0.00000000E+00
  0.00000000E+00  0.00000000E+00  0.00000000E+00
  0.00000000E+00  0.00000000E+00  0.00000000E+00
  0.00000000E+00  0.00000000E+00  0.00000000E+00
  0.00000000E+00  0.00000000E+00  0.00000000E+00
  0.00000000E+00  0.00000000E+00  0.00000000E+00
  0.00000000E+00  0.00000000E+00  0.00000000E+00
  0.00000000E+00  0.00000000E+00  0.00000000E+00
  0.00000000E+00  0.00000000E+00  0.00000000E+00
  0.00000000E+00  0.00000000E+00  0.00000000E+00
  0.00000000E+00  0.00000000E+00  0.00000000E+00
  0.00000000E+00  0.00000000E+00  0.00000000E+00
  0.00000000E+00  0.00000000E+00  0.00000000E+00
  0.00000000E+00  0.00000000E+00  0.00000000E+00
  0.00000000E+00  0.00000000E+00  0.00000000E+00
  0.00000000E+00  0.00000000E+00  0.00000000E+00
  0.00000000E+00  0.00000000E+00  0.00000000E+00
  0.00000000E+00  0.00000000E+00  0.00000000E+00
  0.00000000E+00  0.00000000E+00  0.00000000E+00
  0.00000000E+00  0.00000000E+00  0.00000000E+00
  0.00000000E+00  0.00000000E+00  0.00000000E+00
  0.00000000E+00  0.00000000E+00  0.00000000E+00
  0.00000000E+00  0.00000000E+00  0.00000000E+00
  0.00000000E+00  0.00000000E+00  0.00000000E+00
  0.00000000E+00  0.00000000E+00  0.00000000E+00
  0.00000000E+00  0.00000000E+00  0.00000000E+00
  0.00000000E+00  0.00000000E+00  0.00000000E+00
  0.00000000E+00  0.00000000E+00  0.00000000E+00
