P    Ru   C    O                        
   1.00000000000000     
    13.2544002533000000    0.0000000000000000    0.0000000000000000
     0.0000000000000000   13.1288995743000001    0.0000000000000000
     0.0000000000000000    0.0000000000000000   20.0000000000000000
   P    Ru   C    O 
    48     1     1     3
Selective dynamics
Direct
  0.0681496755119959  0.2088412080397845  0.0434049954331710   F   F   F
  0.1944415012217479  0.3199886718804537  0.0427931886347122   F   F   F
  0.1911765181757244  0.0377858712927649  0.1461306551888983   F   F   F 
  0.0668711382902825  0.1516426317394737  0.1487885786390932   F   F   F 
  0.3107393920583492  0.1979302277896390  0.0378816777060074   F   F   F 
  0.4418757995001071  0.3022412465520048  0.0242895937917784   F   F   F 
  0.4409178444747495  0.0376577150732199  0.1460477197101686   F   F   F 
  0.3163318948202508  0.1506887247236443  0.1456115181248998   F   F   F 
  0.5718984504108823  0.1961585010537838  0.0368906734650744   F   F   F 
  0.6895971317955979  0.3173902630867435  0.0404532932268504   F   F   F 
  0.6907999993101204  0.0378030959330940  0.1463740050922374   F   F   F 
  0.5656040894738887  0.1506849126625530  0.1449289329139439   F   F   F 
  0.8159943492457810  0.2066044706313303  0.0424631414106848   F   F   F 
  0.9413654204879471  0.3193088454682355  0.0410941903285671   F   F   F 
  0.9411748843256172  0.0389837767687141  0.1477004625333257   F   F   F 
  0.8155055987586424  0.1514706774513392  0.1482655812776377   F   F   F 
  0.0661211526490516  0.5377277988020638  0.0333950448330771   F   F   F 
  0.1903097797918928  0.6523361867062548  0.0310521697253622   F   F   F 
  0.1953442695815016  0.3837960295016827  0.1484187043743675   F   F   F 
  0.0665671351492796  0.4921196424712631  0.1413202676739598   F   F   F 
  0.3171697871186579  0.5414938987189559  0.0265071610202569   F   F   F 
  0.4409347877094352  0.6537366675222641  0.0248835943537262   F   F   F 
  0.4410716442709653  0.3589396386890612  0.1285975172478271   F   F   F 
  0.3315558483127156  0.4850589831615755  0.1328599702861275   F   F   F 
  0.5640354170191416  0.5401196213899067  0.0289592005013411   F   F   F 
  0.6908531903566620  0.6510573827637285  0.0321776360512508   F   F   F 
  0.6877910099177689  0.3792693739879824  0.1458436971760567   F   F   F 
  0.5531233945561180  0.4835073073014653  0.1352870065157268   F   F   F 
  0.8153900932331458  0.5369841632246628  0.0339457751677278   F   F   F 
  0.9403579485529314  0.6505362149208697  0.0339378403945259   F   F   F 
  0.9412716511185441  0.3783857573779854  0.1456014709972940   F   F   F 
  0.8146678312044597  0.4901555854589438  0.1415785413399809   F   F   F 
  0.0648828103614429  0.8723197834060282  0.0389404867412471   F   F   F 
  0.1890099135895709  0.9856686757175078  0.0394282367129412   F   F   F 
  0.1916726440090162  0.6990294460006766  0.1387156617240652   F   F   F 
  0.0661792872187975  0.8115273069208676  0.1436261756754648   F   F   F 
  0.3149081470235289  0.8739723089286759  0.0381394617780763   F   F   F 
  0.4408704956466721  0.9855954453300741  0.0397419230835867   F   F   F 
  0.4377076357963842  0.7007892743252945  0.1345324721900954   F   F   F 
  0.3141423977784074  0.8144978752562447  0.1432513806535505   F   F   F 
  0.5654830644280605  0.8725690528194194  0.0396657916149810   F   F   F 
  0.6912988185166004  0.9842009463752696  0.0401164172130073   F   F   F 
  0.6897157573986858  0.6987049257718453  0.1395009877386306   F   F   F 
  0.5649638485306299  0.8113768499736624  0.1447871328173714   F   F   F 
  0.8164302734809002  0.8719898230410950  0.0393530611538767   F   F   F 
  0.9407444056059104  0.9856811324155241  0.0412178654317472   F   F   F 
  0.9404978554875318  0.6998163616823709  0.1410903376733807   F   F   F 
  0.8149305676509774  0.8117227522981074  0.1440345826556419   F   F   F 
  0.4308333766215645  0.5684189718665195  0.2065936085492532   F   F   F 
  0.3474058661995674  0.6282901885394081  0.2789489453548317   T   T   T
  0.4417315940364771  0.5827752823884865  0.3183021293956598   T   T   T
  0.4378679887979873  0.4786909309410704  0.2913225397989578   T   T   T
  0.2860783558940957  0.6807640338136045  0.3050346719740901   T   T   T
 
  0.00000000E+00  0.00000000E+00  0.00000000E+00
  0.00000000E+00  0.00000000E+00  0.00000000E+00
  0.00000000E+00  0.00000000E+00  0.00000000E+00
  0.00000000E+00  0.00000000E+00  0.00000000E+00
  0.00000000E+00  0.00000000E+00  0.00000000E+00
  0.00000000E+00  0.00000000E+00  0.00000000E+00
  0.00000000E+00  0.00000000E+00  0.00000000E+00
  0.00000000E+00  0.00000000E+00  0.00000000E+00
  0.00000000E+00  0.00000000E+00  0.00000000E+00
  0.00000000E+00  0.00000000E+00  0.00000000E+00
  0.00000000E+00  0.00000000E+00  0.00000000E+00
  0.00000000E+00  0.00000000E+00  0.00000000E+00
  0.00000000E+00  0.00000000E+00  0.00000000E+00
  0.00000000E+00  0.00000000E+00  0.00000000E+00
  0.00000000E+00  0.00000000E+00  0.00000000E+00
  0.00000000E+00  0.00000000E+00  0.00000000E+00
  0.00000000E+00  0.00000000E+00  0.00000000E+00
  0.00000000E+00  0.00000000E+00  0.00000000E+00
  0.00000000E+00  0.00000000E+00  0.00000000E+00
  0.00000000E+00  0.00000000E+00  0.00000000E+00
  0.00000000E+00  0.00000000E+00  0.00000000E+00
  0.00000000E+00  0.00000000E+00  0.00000000E+00
  0.00000000E+00  0.00000000E+00  0.00000000E+00
  0.00000000E+00  0.00000000E+00  0.00000000E+00
  0.00000000E+00  0.00000000E+00  0.00000000E+00
  0.00000000E+00  0.00000000E+00  0.00000000E+00
  0.00000000E+00  0.00000000E+00  0.00000000E+00
  0.00000000E+00  0.00000000E+00  0.00000000E+00
  0.00000000E+00  0.00000000E+00  0.00000000E+00
  0.00000000E+00  0.00000000E+00  0.00000000E+00
  0.00000000E+00  0.00000000E+00  0.00000000E+00
  0.00000000E+00  0.00000000E+00  0.00000000E+00
  0.00000000E+00  0.00000000E+00  0.00000000E+00
  0.00000000E+00  0.00000000E+00  0.00000000E+00
  0.00000000E+00  0.00000000E+00  0.00000000E+00
  0.00000000E+00  0.00000000E+00  0.00000000E+00
  0.00000000E+00  0.00000000E+00  0.00000000E+00
  0.00000000E+00  0.00000000E+00  0.00000000E+00
  0.00000000E+00  0.00000000E+00  0.00000000E+00
  0.00000000E+00  0.00000000E+00  0.00000000E+00
  0.00000000E+00  0.00000000E+00  0.00000000E+00
  0.00000000E+00  0.00000000E+00  0.00000000E+00
  0.00000000E+00  0.00000000E+00  0.00000000E+00
  0.00000000E+00  0.00000000E+00  0.00000000E+00
  0.00000000E+00  0.00000000E+00  0.00000000E+00
  0.00000000E+00  0.00000000E+00  0.00000000E+00
  0.00000000E+00  0.00000000E+00  0.00000000E+00
  0.00000000E+00  0.00000000E+00  0.00000000E+00
  0.00000000E+00  0.00000000E+00  0.00000000E+00
  0.00000000E+00  0.00000000E+00  0.00000000E+00
  0.00000000E+00  0.00000000E+00  0.00000000E+00
  0.00000000E+00  0.00000000E+00  0.00000000E+00
  0.00000000E+00  0.00000000E+00  0.00000000E+00
