P    Ru   C    O                        
   1.00000000000000     
    13.2544002533000000    0.0000000000000000    0.0000000000000000
     0.0000000000000000   13.1288995743000001    0.0000000000000000
     0.0000000000000000    0.0000000000000000   20.0000000000000000
   P    Ru   C    O 
    48     1     1     3
Selective dynamics
Direct
  0.0683523153105264  0.2085167761704337  0.0434586100472483   T   T   T
  0.1944887149712755  0.3199678602756917  0.0426907388852249   T   T   T
  0.1912567308015519  0.0376731587531065  0.1465269044101379   T   T   T
  0.0670189163605304  0.1515598896280255  0.1488715931018483   T   T   T
  0.3108259737161619  0.1981569018357752  0.0379911254831567   T   T   T
  0.4411354738983562  0.3031116066073333  0.0246097021404130   T   T   T
  0.4408390543559383  0.0376112949115403  0.1462681338376048   T   T   T
  0.3162872426301913  0.1506138425349769  0.1457520214209831   T   T   T
  0.5708363660264997  0.1967968623256978  0.0372598515877134   T   T   T
  0.6899838499359302  0.3168617495503731  0.0400226158297359   T   T   T
  0.6906552270563038  0.0378655880252603  0.1465433111699776   T   T   T
  0.5653888821990550  0.1506727878333074  0.1452611294117712   T   T   T
  0.8163651021617473  0.2059757115590503  0.0421340836506509   T   T   T
  0.9414475733517692  0.3189657455541717  0.0410033763543836   T   T   T
  0.9412344298960515  0.0389458265055246  0.1478526763346150   T   T   T
  0.8155013660213285  0.1514319411600108  0.1480705338964658   T   T   T
  0.0660699120405163  0.5379129070263448  0.0331462292882678   T   T   T
  0.1902396957976293  0.6526862433885781  0.0308196474015871   T   T   T
  0.1948805004784368  0.3846049628063339  0.1484657747404336   T   T   T
  0.0661839865916474  0.4923812842954007  0.1411207156239260   T   T   T
  0.3169057283840596  0.5418415220330837  0.0257364291160892   T   T   T
  0.4411547702604028  0.6533834752186997  0.0232723538793176   T   T   T
  0.4402866647519467  0.3614867696075535  0.1294798631409976   T   T   T
  0.3300453061952054  0.4882910722408274  0.1333927007219701   T   T   T
  0.5646444691569812  0.5399960487312785  0.0265857701581838   T   T   T
  0.6910075456506537  0.6513313544250542  0.0316707287592575   T   T   T
  0.6877963723442830  0.3785534290177374  0.1451945354495904   T   T   T
  0.5554561233558175  0.4831387773936235  0.1329411488946214   T   T   T
  0.8153696672493062  0.5370855512208201  0.0336596275538993   T   T   T
  0.9402799812920704  0.6505959241167327  0.0337441684849771   T   T   T
  0.9410096880058545  0.3785332959052851  0.1455497962001460   T   T   T
  0.8144847235657469  0.4902331256755209  0.1413324661138071   T   T   T
  0.0649451903809582  0.8720872559071279  0.0390524216503569   T   T   T
  0.1894982192332628  0.9849735837309918  0.0399170138125153   T   T   T
  0.1916903092846357  0.6978360160583291  0.1388694361700791   T   T   T
  0.0664367893723300  0.8109610156471231  0.1438430915272102   T   T   T
  0.3152571042577665  0.8730381462715336  0.0383494060882445   T   T   T
  0.4406377548860257  0.9851482661566193  0.0398788296795081   T   T   T
  0.4379842317453723  0.6994005583670505  0.1335875961991636   T   T   T
  0.3142142131209810  0.8130783783960517  0.1439289720364416   T   T   T
  0.5652364491101937  0.8723718212188893  0.0394938916444079   T   T   T
  0.6907770514469436  0.9842206448582125  0.0403347266773126   T   T   T
  0.6897976441498255  0.6982797025399773  0.1392817890512049   T   T   T
  0.5647234305161579  0.8103970557892792  0.1448393224553111   T   T   T
  0.8164455122886052  0.8722764380595259  0.0392672529966210   T   T   T
  0.9410375808125220  0.9857303102454896  0.0413780936930024   T   T   T
  0.9403599450923138  0.6995931313222221  0.1409101639420226   T   T   T
  0.8147171434541345  0.8115714164253395  0.1438438216536931   T   T   T
  0.4351123449156313  0.5656228694229304  0.2043633157081224   T   T   T
  0.3509264805043324  0.6227300037397292  0.2825981266816330   T   T   T
  0.4130081197402364  0.5769056498214620  0.3300994213025152   T   T   T
  0.4586537087134022  0.4917395216295588  0.2900811867495705   T   T   T
  0.2874698764699705  0.6840600228538544  0.2994819057539982   T   T   T
 
  0.00000000E+00  0.00000000E+00  0.00000000E+00
  0.00000000E+00  0.00000000E+00  0.00000000E+00
  0.00000000E+00  0.00000000E+00  0.00000000E+00
  0.00000000E+00  0.00000000E+00  0.00000000E+00
  0.00000000E+00  0.00000000E+00  0.00000000E+00
  0.00000000E+00  0.00000000E+00  0.00000000E+00
  0.00000000E+00  0.00000000E+00  0.00000000E+00
  0.00000000E+00  0.00000000E+00  0.00000000E+00
  0.00000000E+00  0.00000000E+00  0.00000000E+00
  0.00000000E+00  0.00000000E+00  0.00000000E+00
  0.00000000E+00  0.00000000E+00  0.00000000E+00
  0.00000000E+00  0.00000000E+00  0.00000000E+00
  0.00000000E+00  0.00000000E+00  0.00000000E+00
  0.00000000E+00  0.00000000E+00  0.00000000E+00
  0.00000000E+00  0.00000000E+00  0.00000000E+00
  0.00000000E+00  0.00000000E+00  0.00000000E+00
  0.00000000E+00  0.00000000E+00  0.00000000E+00
  0.00000000E+00  0.00000000E+00  0.00000000E+00
  0.00000000E+00  0.00000000E+00  0.00000000E+00
  0.00000000E+00  0.00000000E+00  0.00000000E+00
  0.00000000E+00  0.00000000E+00  0.00000000E+00
  0.00000000E+00  0.00000000E+00  0.00000000E+00
  0.00000000E+00  0.00000000E+00  0.00000000E+00
  0.00000000E+00  0.00000000E+00  0.00000000E+00
  0.00000000E+00  0.00000000E+00  0.00000000E+00
  0.00000000E+00  0.00000000E+00  0.00000000E+00
  0.00000000E+00  0.00000000E+00  0.00000000E+00
  0.00000000E+00  0.00000000E+00  0.00000000E+00
  0.00000000E+00  0.00000000E+00  0.00000000E+00
  0.00000000E+00  0.00000000E+00  0.00000000E+00
  0.00000000E+00  0.00000000E+00  0.00000000E+00
  0.00000000E+00  0.00000000E+00  0.00000000E+00
  0.00000000E+00  0.00000000E+00  0.00000000E+00
  0.00000000E+00  0.00000000E+00  0.00000000E+00
  0.00000000E+00  0.00000000E+00  0.00000000E+00
  0.00000000E+00  0.00000000E+00  0.00000000E+00
  0.00000000E+00  0.00000000E+00  0.00000000E+00
  0.00000000E+00  0.00000000E+00  0.00000000E+00
  0.00000000E+00  0.00000000E+00  0.00000000E+00
  0.00000000E+00  0.00000000E+00  0.00000000E+00
  0.00000000E+00  0.00000000E+00  0.00000000E+00
  0.00000000E+00  0.00000000E+00  0.00000000E+00
  0.00000000E+00  0.00000000E+00  0.00000000E+00
  0.00000000E+00  0.00000000E+00  0.00000000E+00
  0.00000000E+00  0.00000000E+00  0.00000000E+00
  0.00000000E+00  0.00000000E+00  0.00000000E+00
  0.00000000E+00  0.00000000E+00  0.00000000E+00
  0.00000000E+00  0.00000000E+00  0.00000000E+00
  0.00000000E+00  0.00000000E+00  0.00000000E+00
  0.00000000E+00  0.00000000E+00  0.00000000E+00
  0.00000000E+00  0.00000000E+00  0.00000000E+00
  0.00000000E+00  0.00000000E+00  0.00000000E+00
  0.00000000E+00  0.00000000E+00  0.00000000E+00
